LAMMPS data file: CG HBV dimer

298 atoms
1133 bonds

1 atom types
1133 bond types

-127.5625 127.5625 xlo xhi
-127.5625 127.5625 ylo yhi
-127.5625 127.5625 zlo zhi

Masses

1 110.0

Atoms # bond 

1 1 1 9.072728 -8.275282 -12.327487
2 1 1 6.787728 -5.293282 -11.879487
3 1 1 3.420728 -4.896282 -9.936487
4 1 1 0.639728 -3.493282 -12.167487
5 1 1 -1.093272 -0.960282 -9.733487
6 1 1 -4.717272 -0.946282 -10.835487
7 1 1 -4.930272 -4.058282 -13.076487
8 1 1 -6.371272 -6.675282 -10.499487
9 1 1 -9.276272 -4.311282 -9.946487
10 1 1 -9.611272 -3.847282 -13.813487
11 1 1 -7.761272 -0.704282 -14.770487
12 1 1 -4.582272 -0.140282 -16.803487
13 1 1 -2.082272 2.714718 -15.975487
14 1 1 -2.974272 3.940718 -19.523487
15 1 1 -6.708272 3.985718 -18.710487
16 1 1 -6.029272 6.255718 -15.661487
17 1 1 -3.567272 8.387718 -17.825487
18 1 1 -6.293272 8.809718 -20.402487
19 1 1 -8.086272 11.137718 -18.050487
20 1 1 -6.816272 14.737718 -17.090487
21 1 1 -4.282272 14.686718 -14.067487
22 1 1 -6.218272 17.244718 -12.241487
23 1 1 -9.657272 15.427718 -12.223487
24 1 1 -9.106272 13.507718 -8.909487
25 1 1 -9.799272 14.910718 -5.415487
26 1 1 -6.892272 16.257718 -3.308487
27 1 1 -4.561272 14.711718 -0.802487
28 1 1 -6.675272 16.261718 1.999513
29 1 1 -10.005272 15.626718 0.071513
30 1 1 -9.745272 11.914718 -0.457487
31 1 1 -8.700272 11.577718 3.238513
32 1 1 -11.792272 13.724718 4.206513
33 1 1 -14.171272 11.842718 1.926513
34 1 1 -12.788272 8.410718 3.198513
35 1 1 -13.458272 9.591718 6.776513
36 1 1 -16.990272 11.028718 6.037513
37 1 1 -18.521272 8.232718 3.967513
38 1 1 -16.332272 5.203718 4.851513
39 1 1 -15.597272 5.401718 8.616513
40 1 1 -16.061272 1.851718 9.851513
41 1 1 -14.340272 0.561718 6.722513
42 1 1 -11.157272 2.394718 7.902513
43 1 1 -11.451272 0.646718 11.387513
44 1 1 -12.401272 -2.824282 10.075513
45 1 1 -11.256272 -6.061282 11.801513
46 1 1 -12.804272 -7.741282 8.577513
47 1 1 -11.248272 -7.891282 5.121513
48 1 1 -14.526272 -7.871282 3.122513
49 1 1 -14.317272 -7.104282 -0.700487
50 1 1 -10.826272 -6.572282 -2.382487
51 1 1 -11.466272 -2.828282 -2.513487
52 1 1 -11.733272 -2.550282 1.258513
53 1 1 -8.343272 -4.131282 1.915513
54 1 1 -6.617272 -2.127282 -0.836487
55 1 1 -8.119272 1.071718 0.504513
56 1 1 -6.742272 0.503718 3.987513
57 1 1 -3.299272 -0.344282 2.680513
58 1 1 -3.213272 2.786718 0.462513
59 1 1 -3.765272 5.157718 3.399513
60 1 1 -0.959272 3.306718 5.169513
61 1 1 1.403728 3.558718 2.095513
62 1 1 1.151728 7.447718 2.174513
63 1 1 1.546728 7.231718 5.938513
64 1 1 5.118728 6.035718 5.772513
65 1 1 5.601728 8.479718 2.815513
66 1 1 4.463728 11.585718 4.574513
67 1 1 6.295728 10.478718 7.769513
68 1 1 9.583728 10.580718 5.532513
69 1 1 8.447728 13.835718 3.753513
70 1 1 7.934728 15.489718 7.152513
71 1 1 11.302728 14.211718 8.460513
72 1 1 13.164728 15.238718 5.326513
73 1 1 11.746728 18.868718 5.586513
74 1 1 12.923728 18.877718 9.260513
75 1 1 16.480728 17.752718 8.222513
76 1 1 16.532728 20.496718 5.464513
77 1 1 17.472728 24.015718 6.558513
78 1 1 15.917728 25.784718 3.525513
79 1 1 12.181728 26.927718 3.765513
80 1 1 11.894728 26.979718 -0.048487
81 1 1 13.045728 23.290718 -0.454487
82 1 1 10.424728 22.258718 2.219513
83 1 1 7.832728 23.589718 -0.167487
84 1 1 9.505728 21.621718 -2.895487
85 1 1 9.416728 18.302718 -0.982487
86 1 1 5.636728 18.562718 -0.058487
87 1 1 5.044728 19.645718 -3.723487
88 1 1 6.946728 16.545718 -5.179487
89 1 1 5.054728 14.388718 -2.685487
90 1 1 1.685728 15.950718 -3.592487
91 1 1 2.500728 15.926718 -7.390487
92 1 1 5.168728 13.507718 -8.857487
93 1 1 4.527728 10.680718 -6.456487
94 1 1 1.069728 11.770718 -4.909487
95 1 1 -0.747272 11.829718 -8.194487
96 1 1 -0.495272 8.011718 -8.366487
97 1 1 -1.659272 7.983718 -4.700487
98 1 1 -4.669272 10.189718 -5.622487
99 1 1 -5.487272 7.783718 -8.580487
100 1 1 -5.117272 4.593718 -6.449487
101 1 1 -7.387272 5.731718 -3.387487
102 1 1 -9.884272 7.634718 -5.718487
103 1 1 -10.173272 4.424718 -7.778487
104 1 1 -10.852272 2.294718 -4.824487
105 1 1 -13.436272 4.751718 -3.434487
106 1 1 -15.265272 5.069718 -6.776487
107 1 1 -15.282272 1.312718 -7.315487
108 1 1 -16.311272 0.570718 -3.738487
109 1 1 -19.127272 3.136718 -3.897487
110 1 1 -20.539272 2.424718 -7.421487
111 1 1 -18.952272 -0.876282 -8.659487
112 1 1 -16.223272 -1.215282 -11.270487
113 1 1 -17.764272 -1.396282 -14.747487
114 1 1 -19.807272 1.844718 -14.659487
115 1 1 -16.670272 3.505718 -13.462487
116 1 1 -14.572272 1.702718 -16.277487
117 1 1 -17.246272 2.905718 -18.838487
118 1 1 -17.220272 6.324718 -17.157487
119 1 1 -13.426272 6.515718 -17.832487
120 1 1 -13.637272 6.138718 -21.646487
121 1 1 -16.688272 8.264718 -21.757487
122 1 1 -15.319272 11.189718 -19.617487
123 1 1 -12.255272 10.741718 -21.948487
124 1 1 -14.219272 10.942718 -25.158487
125 1 1 -16.123272 13.952718 -23.772487
126 1 1 -12.813272 15.753718 -22.864487
127 1 1 -11.079272 14.659718 -26.213487
128 1 1 -14.186272 15.899718 -27.963487
129 1 1 -13.128272 19.453718 -28.636487
130 1 1 -14.349272 22.176718 -26.235487
131 1 1 -17.023272 23.929718 -28.499487
132 1 1 -18.210272 20.749718 -30.169487
133 1 1 -18.926272 19.118718 -26.764487
134 1 1 -22.289272 17.735718 -25.604487
135 1 1 -23.583272 20.126718 -22.836487
136 1 1 -23.533272 17.626718 -20.062487
137 1 1 -20.545272 15.392718 -19.428487
138 1 1 -21.141272 11.481718 -19.106487
139 1 1 -21.102272 10.239718 -15.523487
140 1 1 -21.259272 6.713718 -13.688487
141 1 1 -24.805272 5.235718 -12.969487
142 1 1 -26.197272 6.290718 -9.505487
143 1 1 -29.617272 4.883718 -10.184487
144 1 1 -29.561272 1.404718 -8.414487
145 1 1 -32.145272 0.207718 -10.744487
146 1 1 -34.076272 -1.703282 -8.039487
147 1 1 -36.671272 -0.722282 -5.388487
148 1 1 -34.649272 -1.910282 -2.325487
149 1 1 -32.107272 0.160718 -0.182487
150 1 1 -9.816272 6.241718 12.888513
151 1 1 -6.301272 6.463718 11.546513
152 1 1 -5.324272 2.862718 10.431513
153 1 1 -3.840272 0.067718 12.604513
154 1 1 -2.051272 -2.065282 9.972513
155 1 1 -2.771272 -5.707282 11.009513
156 1 1 -6.154272 -5.212282 12.593513
157 1 1 -8.010272 -6.752282 9.607513
158 1 1 -5.466272 -9.497282 9.441513
159 1 1 -5.906272 -10.746282 13.034513
160 1 1 -2.704272 -9.206282 14.521513
161 1 1 -0.971272 -6.385282 16.417513
162 1 1 1.881728 -3.892282 15.915513
163 1 1 2.587728 -4.450282 19.590513
164 1 1 3.745728 -8.095282 18.880513
165 1 1 5.253728 -7.322282 15.470513
166 1 1 7.493728 -4.467282 16.680513
167 1 1 8.742728 -6.452282 19.806513
168 1 1 10.692728 -8.796282 17.501513
169 1 1 14.474728 -8.130282 16.701513
170 1 1 15.515728 -6.687282 13.340513
171 1 1 17.854728 -9.728282 12.543513
172 1 1 14.955728 -12.136282 12.966513
173 1 1 13.389728 -10.619282 9.766513
174 1 1 14.953728 -11.339282 6.384513
175 1 1 15.944728 -8.253282 4.227513
176 1 1 13.442728 -6.452282 1.959513
177 1 1 15.622728 -7.903282 -0.853487
178 1 1 14.799728 -11.625282 0.060513
179 1 1 11.005728 -10.766282 0.496513
180 1 1 11.151728 -9.161282 -2.951487
181 1 1 12.919728 -12.249282 -4.288487
182 1 1 10.345728 -14.628282 -2.663487
183 1 1 7.488728 -12.589282 -4.171487
184 1 1 9.002728 -12.799282 -7.693487
185 1 1 10.085728 -16.487282 -7.253487
186 1 1 6.926728 -18.296282 -5.834487
187 1 1 4.071728 -15.864282 -6.327487
188 1 1 4.771728 -14.174282 -9.635487
189 1 1 1.658728 -15.726282 -11.175487
190 1 1 -0.651272 -14.472282 -8.464487
191 1 1 1.014728 -10.957282 -8.403487
192 1 1 0.498728 -10.656282 -12.303487
193 1 1 -3.080272 -12.120282 -11.788487
194 1 1 -6.218272 -10.573282 -13.708487
195 1 1 -8.240272 -11.931282 -10.868487
196 1 1 -8.474272 -11.558282 -7.025487
197 1 1 -6.466272 -14.138282 -4.902487
198 1 1 -6.249272 -13.220282 -1.148487
199 1 1 -6.016272 -10.131282 0.931513
200 1 1 -2.368272 -11.280282 1.647513
201 1 1 -1.557272 -11.272282 -2.097487
202 1 1 -3.159272 -7.808282 -2.398487
203 1 1 -1.196272 -6.432282 0.628513
204 1 1 1.828728 -7.897282 -1.027487
205 1 1 1.093728 -5.962282 -4.099487
206 1 1 0.361728 -2.773282 -2.125487
207 1 1 3.420728 -2.790282 0.108513
208 1 1 5.942728 -3.278282 -2.813487
209 1 1 4.228728 -0.156282 -4.498487
210 1 1 4.651728 1.466718 -1.080487
211 1 1 8.389728 0.729718 -0.868487
212 1 1 8.938728 1.739718 -4.421487
213 1 1 7.644728 5.261718 -4.136487
214 1 1 9.583728 5.433718 -0.787487
215 1 1 12.831728 4.511718 -2.513487
216 1 1 12.204728 6.961718 -5.452487
217 1 1 11.496728 9.827718 -2.953487
218 1 1 14.766728 9.031718 -0.946487
219 1 1 16.653728 8.807718 -4.183487
220 1 1 15.283728 12.020718 -5.660487
221 1 1 16.118728 13.794718 -2.305487
222 1 1 19.535728 12.189718 -2.248487
223 1 1 20.005728 13.319718 -5.836487
224 1 1 19.206728 16.932718 -4.896487
225 1 1 21.710728 17.128718 -2.044487
226 1 1 25.387728 17.361718 -2.839487
227 1 1 26.493728 16.042718 0.529513
228 1 1 27.246728 12.120718 0.575513
229 1 1 26.651728 11.996718 4.408513
230 1 1 23.252728 13.725718 4.107513
231 1 1 22.292728 10.981718 1.388513
232 1 1 23.603728 8.255718 3.801513
233 1 1 21.350728 9.966718 6.487513
234 1 1 18.178728 9.861718 4.297513
235 1 1 18.852728 6.424718 3.012513
236 1 1 19.628728 4.897718 6.406513
237 1 1 16.282728 6.383718 7.697513
238 1 1 14.549728 4.501718 4.800513
239 1 1 16.328728 1.123718 5.584513
240 1 1 15.876728 1.479718 9.442513
241 1 1 13.152728 3.832718 10.847513
242 1 1 10.795728 3.238718 7.884513
243 1 1 12.259728 -0.053282 6.580513
244 1 1 12.000728 -2.117282 9.687513
245 1 1 8.196728 -1.698282 9.301513
246 1 1 8.356728 -2.989282 5.662513
247 1 1 10.346728 -6.038282 6.753513
248 1 1 7.519728 -6.781282 9.306513
249 1 1 4.804728 -6.036282 6.806513
250 1 1 6.175728 -7.915282 3.762513
251 1 1 7.297728 -10.875282 6.030513
252 1 1 3.846728 -11.170282 7.718513
253 1 1 2.040728 -11.311282 4.242513
254 1 1 4.669728 -13.487282 2.575513
255 1 1 4.735728 -15.869282 5.387513
256 1 1 0.923728 -16.220282 5.582513
257 1 1 0.922728 -16.995282 1.852513
258 1 1 3.739728 -19.673282 2.381513
259 1 1 2.570728 -21.130282 5.641513
260 1 1 -1.040272 -20.054282 6.414513
261 1 1 -1.911272 -17.112282 8.804513
262 1 1 -2.823272 -19.193282 11.957513
263 1 1 0.325728 -21.376282 11.655513
264 1 1 2.534728 -18.169282 11.557513
265 1 1 0.966728 -16.405282 14.540513
266 1 1 1.198728 -19.543282 16.773513
267 1 1 4.879728 -19.595282 15.758513
268 1 1 5.139728 -15.967282 16.801513
269 1 1 3.224728 -16.590282 20.107513
270 1 1 5.584728 -19.486282 21.033513
271 1 1 8.606728 -17.217282 20.019513
272 1 1 7.256728 -14.425282 22.248513
273 1 1 7.180728 -16.320282 25.616513
274 1 1 10.912728 -17.255282 24.937513
275 1 1 11.972728 -13.561282 24.441513
276 1 1 9.823728 -12.612282 27.483513
277 1 1 11.712728 -15.385282 29.469513
278 1 1 15.101728 -13.953282 30.812513
279 1 1 18.129728 -15.399282 28.930513
280 1 1 19.405728 -17.948282 31.501513
281 1 1 15.952728 -19.227282 32.202513
282 1 1 15.246728 -20.354282 28.653513
283 1 1 16.635728 -22.986282 26.056513
284 1 1 19.655728 -21.776282 23.876513
285 1 1 17.993728 -22.367282 20.424513
286 1 1 15.297728 -19.920282 19.158513
287 1 1 12.088728 -21.468282 17.891513
288 1 1 12.536728 -22.581282 14.214513
289 1 1 10.057728 -21.838282 11.375513
290 1 1 7.378728 -24.512282 10.712513
291 1 1 7.229728 -26.931282 7.704513
292 1 1 5.452728 -26.164282 4.424513
293 1 1 1.763728 -27.150282 4.037513
294 1 1 1.122728 -30.343282 1.915513
295 1 1 1.187728 -29.455282 -1.793487
296 1 1 3.044728 -26.452282 -2.914487
297 1 1 3.584728 -27.134282 -6.643487
298 1 1 1.505728 -29.601282 -8.834487

Bonds # (bond_id bond_type atom_id_1 atom_id_2)

1 1 124 127
2 2 124 128
3 3 123 124
4 4 124 126
5 5 121 124
6 6 122 124
7 7 120 124
8 8 132 134
9 9 133 134
10 10 134 135
11 11 134 136
12 12 134 137
13 13 125 133
14 14 132 133
15 15 125 127
16 16 125 128
17 17 128 132
18 18 129 132
19 19 128 133
20 20 129 133
21 21 131 132
22 22 131 133
23 23 125 137
24 24 130 132
25 25 130 133
26 26 125 126
27 27 124 125
28 28 133 135
29 29 121 125
30 30 122 125
31 31 125 138
32 32 123 125
33 33 127 128
34 34 127 129
35 35 128 129
36 36 128 130
37 37 129 130
38 38 126 127
39 39 126 128
40 40 126 129
41 41 123 127
42 42 130 131
43 43 129 131
44 44 116 117
45 45 117 120
46 46 117 118
47 47 117 121
48 48 114 117
49 49 115 117
50 50 117 119
51 51 113 117
52 52 116 120
53 53 116 119
54 54 119 120
55 55 120 123
56 56 114 116
57 57 115 116
58 58 112 116
59 59 113 116
60 60 12 13
61 61 12 14
62 62 12 15
63 63 13 14
64 64 13 15
65 65 14 15
66 66 12 16
67 67 13 16
68 68 13 17
69 69 14 16
70 70 14 17
71 71 14 18
72 72 15 16
73 73 15 17
74 74 15 18
75 75 6 12
76 76 6 13
77 77 11 12
78 78 11 13
79 79 11 15
80 80 7 12
81 81 10 12
82 82 118 121
83 83 118 122
84 84 118 138
85 85 121 122
86 86 121 138
87 87 122 138
88 88 118 119
89 89 119 121
90 90 121 123
91 91 119 122
92 92 122 123
93 93 122 137
94 94 137 138
95 95 118 139
96 96 118 140
97 97 122 139
98 98 138 139
99 99 138 140
100 100 122 126
101 101 116 118
102 102 118 120
103 103 120 121
104 104 120 122
105 105 114 118
106 106 115 118
107 107 19 119
108 108 19 123
109 109 119 123
110 110 16 19
111 111 17 19
112 112 18 19
113 113 18 123
114 114 123 126
115 115 19 20
116 116 15 119
117 117 19 21
118 118 115 119
119 119 16 17
120 120 16 18
121 121 17 18
122 122 17 20
123 123 18 20
124 124 16 99
125 125 11 16
126 126 135 136
127 127 135 137
128 128 136 137
129 129 136 138
130 130 137 139
131 131 20 21
132 132 20 22
133 133 20 23
134 134 295 298
135 135 296 298
136 136 297 298
137 137 193 195
138 138 194 195
139 139 195 196
140 140 8 195
141 141 195 197
142 142 190 193
143 143 193 194
144 144 188 190
145 145 189 190
146 146 190 191
147 147 190 192
148 148 189 193
149 149 191 193
150 150 192 193
151 151 192 194
152 152 8 193
153 153 7 194
154 154 8 194
155 155 190 197
156 156 190 201
157 157 193 196
158 158 194 196
159 159 187 190
160 160 188 189
161 161 188 191
162 162 188 192
163 163 189 191
164 164 189 192
165 165 191 192
166 166 3 191
167 167 3 192
168 168 4 192
169 169 183 188
170 170 184 188
171 171 191 205
172 172 191 201
173 173 186 188
174 174 187 188
175 175 187 189
176 176 187 191
177 177 185 188
178 178 112 113
179 179 111 112
180 180 112 114
181 181 112 115
182 182 111 113
183 183 113 114
184 184 113 115
185 185 107 112
186 186 110 112
187 187 9 10
188 188 7 9
189 189 8 9
190 190 7 10
191 191 8 10
192 192 9 11
193 193 10 11
194 194 6 9
195 195 6 10
196 196 7 8
197 197 4 7
198 198 5 7
199 199 6 7
200 200 6 8
201 201 8 196
202 202 2 3
203 203 2 4
204 204 3 4
205 205 1 2
206 206 1 3
207 207 3 205
208 208 3 209
209 209 1 184
210 210 143 144
211 211 143 145
212 212 144 145
213 213 141 143
214 214 145 147
215 215 142 143
216 216 142 144
217 217 144 146
218 218 145 146
219 219 114 141
220 220 141 142
221 221 139 141
222 222 140 141
223 223 111 114
224 224 111 115
225 225 114 115
226 226 114 140
227 227 115 140
228 228 106 111
229 229 107 111
230 230 108 111
231 231 109 111
232 232 110 111
233 233 110 114
234 234 106 115
235 235 107 115
236 236 110 115
237 237 6 11
238 238 7 11
239 239 5 6
240 240 6 100
241 241 3 5
242 242 4 5
243 243 4 6
244 244 140 142
245 245 110 142
246 246 139 140
247 247 96 99
248 248 95 96
249 249 96 97
250 250 96 98
251 251 95 99
252 252 97 99
253 253 98 99
254 254 93 96
255 255 94 96
256 256 99 102
257 257 96 100
258 258 99 100
259 259 99 101
260 260 99 103
261 261 23 24
262 262 21 23
263 263 22 23
264 264 21 24
265 265 22 24
266 266 23 25
267 267 24 25
268 268 24 26
269 269 24 99
270 270 24 102
271 271 24 98
272 272 21 22
273 273 88 92
274 274 89 92
275 275 90 92
276 276 91 92
277 277 92 93
278 278 92 94
279 279 92 95
280 280 295 296
281 281 295 297
282 282 296 297
283 283 293 295
284 284 294 295
285 285 293 296
286 286 294 296
287 287 186 187
288 288 185 186
289 289 185 187
290 290 182 186
291 291 183 186
292 292 184 186
293 293 183 187
294 294 184 187
295 295 181 185
296 296 182 185
297 297 183 185
298 298 184 185
299 299 196 197
300 300 196 198
301 301 50 196
302 302 197 198
303 303 197 201
304 304 198 201
305 305 198 202
306 306 201 202
307 307 197 199
308 308 198 199
309 309 198 200
310 310 199 201
311 311 200 201
312 312 201 204
313 313 201 205
314 314 201 253
315 315 201 203
316 316 180 181
317 317 180 182
318 318 180 183
319 319 180 184
320 320 181 182
321 321 181 183
322 322 181 184
323 323 182 183
324 324 182 184
325 325 183 184
326 326 179 180
327 327 179 181
328 328 179 182
329 329 179 183
330 330 178 180
331 331 178 181
332 332 178 182
333 333 176 180
334 334 177 180
335 335 177 181
336 336 146 148
337 337 146 147
338 338 147 148
339 339 148 149
340 340 50 51
341 341 51 104
342 342 48 50
343 343 49 50
344 344 50 52
345 345 50 53
346 346 49 51
347 347 51 52
348 348 51 53
349 349 50 54
350 350 51 54
351 351 51 55
352 352 50 199
353 353 202 204
354 354 202 205
355 355 202 206
356 356 54 202
357 357 202 203
358 358 199 202
359 359 200 202
360 360 204 205
361 361 204 206
362 362 204 208
363 363 205 206
364 364 205 208
365 365 206 208
366 366 205 209
367 367 206 209
368 368 206 210
369 369 208 209
370 370 208 210
371 371 204 207
372 372 204 250
373 373 205 207
374 374 206 207
375 375 207 208
376 376 208 212
377 377 203 204
378 378 203 205
379 379 54 206
380 380 203 206
381 381 204 253
382 382 204 254
383 383 208 211
384 384 57 206
385 385 58 206
386 386 200 204
387 387 147 149
388 388 106 107
389 389 106 108
390 390 106 109
391 391 106 110
392 392 107 108
393 393 107 109
394 394 107 110
395 395 108 109
396 396 108 110
397 397 109 110
398 398 103 106
399 399 104 106
400 400 105 106
401 401 103 107
402 402 104 107
403 403 105 107
404 404 104 108
405 405 105 108
406 406 105 109
407 407 102 106
408 408 51 108
409 409 103 104
410 410 103 105
411 411 104 105
412 412 100 103
413 413 101 103
414 414 100 104
415 415 101 104
416 416 101 105
417 417 102 103
418 418 102 104
419 419 102 105
420 420 55 104
421 421 100 101
422 422 97 100
423 423 98 100
424 424 97 101
425 425 98 101
426 426 58 101
427 427 55 101
428 428 30 101
429 429 209 210
430 430 209 212
431 431 209 213
432 432 210 212
433 433 210 213
434 434 61 210
435 435 209 211
436 436 210 211
437 437 210 214
438 438 207 209
439 439 207 210
440 440 212 213
441 441 212 215
442 442 213 215
443 443 212 216
444 444 213 216
445 445 213 217
446 446 215 216
447 447 215 217
448 448 211 212
449 449 212 214
450 450 211 213
451 451 213 214
452 452 211 215
453 453 214 215
454 454 215 219
455 455 215 218
456 456 98 102
457 457 25 102
458 458 30 102
459 459 100 102
460 460 101 102
461 461 95 97
462 462 95 98
463 463 97 98
464 464 93 95
465 465 94 95
466 466 93 97
467 467 94 97
468 468 94 98
469 469 26 98
470 470 90 95
471 471 91 95
472 472 27 98
473 473 93 94
474 474 88 93
475 475 89 93
476 476 90 93
477 477 91 93
478 478 89 94
479 479 90 94
480 480 91 94
481 481 93 213
482 482 216 217
483 483 216 219
484 484 216 220
485 485 217 219
486 486 217 220
487 487 217 221
488 488 216 218
489 489 217 218
490 490 214 216
491 491 214 217
492 492 219 220
493 493 219 222
494 494 219 223
495 495 220 222
496 496 220 223
497 497 222 223
498 498 219 221
499 499 220 221
500 500 220 224
501 501 221 222
502 502 222 224
503 503 222 225
504 504 221 223
505 505 223 224
506 506 223 225
507 507 218 219
508 508 218 220
509 509 218 222
510 510 222 234
511 511 222 231
512 512 25 26
513 513 25 29
514 514 25 27
515 515 25 98
516 516 25 30
517 517 26 27
518 518 26 28
519 519 26 29
520 520 26 30
521 521 87 88
522 522 87 89
523 523 87 90
524 524 87 91
525 525 88 89
526 526 88 90
527 527 88 91
528 528 89 90
529 529 89 91
530 530 90 91
531 531 85 87
532 532 85 88
533 533 85 89
534 534 86 87
535 535 86 88
536 536 86 89
537 537 86 90
538 538 84 87
539 539 84 88
540 540 69 89
541 541 27 90
542 542 83 87
543 543 84 85
544 544 69 85
545 545 73 85
546 546 81 85
547 547 82 85
548 548 83 85
549 549 85 86
550 550 221 224
551 551 221 225
552 552 224 225
553 553 224 226
554 554 225 226
555 555 225 227
556 556 225 230
557 557 218 221
558 558 225 231
559 559 226 227
560 560 226 228
561 561 80 84
562 562 81 84
563 563 82 84
564 564 83 84
565 565 84 86
566 566 292 293
567 567 292 294
568 568 293 294
569 569 258 292
570 570 259 292
571 571 259 293
572 572 290 292
573 573 291 292
574 574 291 293
575 575 255 256
576 576 255 257
577 577 255 258
578 578 255 259
579 579 256 257
580 580 256 258
581 581 256 259
582 582 257 258
583 583 257 259
584 584 258 259
585 585 253 255
586 586 254 255
587 587 253 256
588 588 254 256
589 589 253 257
590 590 254 257
591 591 254 258
592 592 255 264
593 593 256 264
594 594 259 263
595 595 259 264
596 596 251 255
597 597 252 255
598 598 252 256
599 599 255 260
600 600 256 260
601 601 256 261
602 602 257 260
603 603 258 260
604 604 259 260
605 605 259 261
606 606 199 200
607 607 200 253
608 608 199 203
609 609 200 203
610 610 200 256
611 611 200 257
612 612 253 254
613 613 251 253
614 614 179 254
615 615 251 254
616 616 250 253
617 617 250 254
618 618 252 253
619 619 252 254
620 620 249 253
621 621 179 251
622 622 178 179
623 623 176 179
624 624 173 251
625 625 175 179
626 626 177 179
627 627 174 179
628 628 247 251
629 629 248 251
630 630 251 252
631 631 249 251
632 632 175 178
633 633 177 178
634 634 174 178
635 635 47 48
636 636 47 49
637 637 47 52
638 638 47 53
639 639 48 49
640 640 48 52
641 641 49 52
642 642 49 53
643 643 52 53
644 644 52 54
645 645 53 54
646 646 52 55
647 647 53 55
648 648 44 47
649 649 45 47
650 650 46 47
651 651 47 157
652 652 46 48
653 653 52 56
654 654 53 56
655 655 53 57
656 656 41 52
657 657 47 199
658 658 53 199
659 659 54 203
660 660 203 207
661 661 54 56
662 662 54 57
663 663 54 58
664 664 57 203
665 665 203 253
666 666 207 250
667 667 246 250
668 668 61 207
669 669 249 250
670 670 207 211
671 671 247 250
672 672 248 250
673 673 179 250
674 674 250 251
675 675 250 252
676 676 176 246
677 677 175 176
678 678 176 177
679 679 176 247
680 680 244 246
681 681 245 246
682 682 246 247
683 683 246 248
684 684 242 246
685 685 243 246
686 686 176 178
687 687 246 249
688 688 174 176
689 689 175 177
690 690 175 247
691 691 174 175
692 692 173 175
693 693 36 38
694 694 37 38
695 695 38 39
696 696 38 40
697 697 34 38
698 698 38 41
699 699 38 42
700 700 35 38
701 701 55 56
702 702 55 57
703 703 55 58
704 704 55 59
705 705 54 55
706 706 56 57
707 707 56 58
708 708 56 59
709 709 56 60
710 710 57 58
711 711 57 59
712 712 57 60
713 713 58 59
714 714 58 60
715 715 59 60
716 716 57 61
717 717 58 61
718 718 59 61
719 719 60 61
720 720 60 64
721 721 56 152
722 722 60 152
723 723 58 62
724 724 59 62
725 725 59 63
726 726 60 62
727 727 60 63
728 728 42 56
729 729 60 154
730 730 61 64
731 731 61 62
732 732 61 63
733 733 61 65
734 734 62 64
735 735 63 64
736 736 64 65
737 737 64 66
738 738 64 68
739 739 64 242
740 740 64 67
741 741 211 214
742 742 214 218
743 743 238 239
744 744 234 238
745 745 235 238
746 746 235 239
747 747 236 238
748 748 238 240
749 749 236 239
750 750 239 240
751 751 237 238
752 752 237 239
753 753 238 241
754 754 238 242
755 755 238 243
756 756 239 241
757 757 239 242
758 758 239 243
759 759 239 244
760 760 36 37
761 761 33 36
762 762 34 36
763 763 33 37
764 764 34 37
765 765 32 36
766 766 35 36
767 767 35 37
768 768 36 39
769 769 37 39
770 770 30 31
771 771 30 33
772 772 30 34
773 773 31 33
774 774 31 34
775 775 33 34
776 776 29 30
777 777 30 32
778 778 29 31
779 779 31 32
780 780 29 33
781 781 32 33
782 782 32 34
783 783 31 35
784 784 33 35
785 785 34 35
786 786 27 30
787 787 28 30
788 788 27 31
789 789 28 31
790 790 34 39
791 791 62 63
792 792 62 65
793 793 62 66
794 794 63 65
795 795 63 66
796 796 65 66
797 797 65 68
798 798 66 68
799 799 63 67
800 800 65 67
801 801 66 67
802 802 65 69
803 803 66 69
804 804 65 214
805 805 66 70
806 806 68 69
807 807 68 72
808 808 68 70
809 809 68 71
810 810 67 68
811 811 218 234
812 812 218 235
813 813 234 235
814 814 231 234
815 815 232 234
816 816 231 235
817 817 232 235
818 818 233 234
819 819 234 237
820 820 233 235
821 821 235 237
822 822 230 234
823 823 234 236
824 824 235 236
825 825 228 229
826 826 228 231
827 827 228 232
828 828 229 231
829 829 229 232
830 830 231 232
831 831 227 228
832 832 228 230
833 833 227 229
834 834 229 230
835 835 227 231
836 836 230 231
837 837 230 232
838 838 229 233
839 839 231 233
840 840 232 233
841 841 232 236
842 842 29 32
843 843 27 29
844 844 28 29
845 845 28 32
846 846 32 35
847 847 27 28
848 848 69 86
849 849 82 86
850 850 83 86
851 851 69 72
852 852 69 73
853 853 72 73
854 854 72 76
855 855 73 76
856 856 73 82
857 857 69 70
858 858 69 71
859 859 70 72
860 860 71 72
861 861 72 74
862 862 70 73
863 863 71 73
864 864 73 74
865 865 72 75
866 866 73 75
867 867 67 69
868 868 76 78
869 869 75 76
870 870 76 77
871 871 74 76
872 872 227 230
873 873 230 233
874 874 79 80
875 875 79 81
876 876 79 82
877 877 79 83
878 878 80 81
879 879 80 82
880 880 80 83
881 881 81 82
882 882 81 83
883 883 82 83
884 884 78 79
885 885 78 80
886 886 78 81
887 887 78 82
888 888 77 79
889 889 76 82
890 890 77 78
891 891 290 291
892 892 289 290
893 893 289 291
894 894 288 290
895 895 260 261
896 896 260 262
897 897 261 262
898 898 260 263
899 899 260 264
900 900 261 263
901 901 261 264
902 902 262 263
903 903 262 264
904 904 261 265
905 905 262 265
906 906 262 266
907 907 263 264
908 908 263 265
909 909 263 266
910 910 263 267
911 911 264 265
912 912 264 266
913 913 264 267
914 914 264 268
915 915 287 289
916 916 288 289
917 917 267 289
918 918 158 159
919 919 155 158
920 920 156 158
921 921 155 159
922 922 156 159
923 923 158 160
924 924 159 160
925 925 249 252
926 926 248 252
927 927 171 173
928 928 172 173
929 929 173 174
930 930 173 247
931 931 173 248
932 932 170 173
933 933 171 172
934 934 171 174
935 935 172 174
936 936 170 171
937 937 170 172
938 938 169 171
939 939 169 172
940 940 168 172
941 941 44 45
942 942 44 46
943 943 44 157
944 944 45 46
945 945 45 157
946 946 46 157
947 947 44 156
948 948 45 156
949 949 155 157
950 950 156 157
951 951 41 44
952 952 42 44
953 953 43 44
954 954 43 45
955 955 45 158
956 956 45 159
957 957 157 158
958 958 157 159
959 959 154 155
960 960 154 156
961 961 155 156
962 962 152 154
963 963 153 154
964 964 153 155
965 965 153 156
966 966 155 161
967 967 156 161
968 968 155 162
969 969 155 160
970 970 156 160
971 971 245 249
972 972 247 249
973 973 248 249
974 974 244 245
975 975 244 247
976 976 244 248
977 977 245 247
978 978 245 248
979 979 247 248
980 980 170 244
981 981 241 244
982 982 242 244
983 983 243 244
984 984 242 245
985 985 243 245
986 986 243 247
987 987 240 244
988 988 174 247
989 989 165 248
990 990 169 170
991 991 168 170
992 992 39 40
993 993 39 41
994 994 39 42
995 995 39 43
996 996 40 41
997 997 40 42
998 998 40 43
999 999 35 39
1000 1000 39 150
1001 1001 40 44
1002 1002 41 42
1003 1003 41 43
1004 1004 42 43
1005 1005 42 152
1006 1006 43 152
1007 1007 42 150
1008 1008 43 150
1009 1009 152 153
1010 1010 151 152
1011 1011 151 153
1012 1012 241 242
1013 1013 241 243
1014 1014 242 243
1015 1015 240 241
1016 1016 240 242
1017 1017 240 243
1018 1018 237 241
1019 1019 237 242
1020 1020 236 240
1021 1021 233 236
1022 1022 236 237
1023 1023 237 240
1024 1024 150 151
1025 1025 150 152
1026 1026 67 70
1027 1027 67 71
1028 1028 233 237
1029 1029 70 71
1030 1030 70 74
1031 1031 71 74
1032 1032 71 75
1033 1033 74 75
1034 1034 75 77
1035 1035 265 266
1036 1036 265 267
1037 1037 265 268
1038 1038 265 269
1039 1039 266 267
1040 1040 266 268
1041 1041 266 269
1042 1042 267 268
1043 1043 267 269
1044 1044 268 269
1045 1045 267 271
1046 1046 268 271
1047 1047 269 271
1048 1048 266 270
1049 1049 267 270
1050 1050 268 270
1051 1051 269 270
1052 1052 269 273
1053 1053 268 272
1054 1054 269 272
1055 1055 271 287
1056 1056 287 288
1057 1057 271 286
1058 1058 285 287
1059 1059 286 287
1060 1060 286 288
1061 1061 271 273
1062 1062 271 274
1063 1063 271 272
1064 1064 271 275
1065 1065 270 271
1066 1066 285 286
1067 1067 283 285
1068 1068 284 285
1069 1069 284 286
1070 1070 160 161
1071 1071 160 162
1072 1072 166 168
1073 1073 167 168
1074 1074 168 169
1075 1075 161 162
1076 1076 161 163
1077 1077 161 164
1078 1078 161 165
1079 1079 162 163
1080 1080 162 164
1081 1081 162 165
1082 1082 163 164
1083 1083 163 165
1084 1084 164 165
1085 1085 162 166
1086 1086 163 166
1087 1087 163 167
1088 1088 164 166
1089 1089 164 167
1090 1090 165 166
1091 1091 165 167
1092 1092 164 168
1093 1093 165 168
1094 1094 166 167
1095 1095 167 169
1096 1096 270 273
1097 1097 270 274
1098 1098 270 272
1099 1099 273 274
1100 1100 272 273
1101 1101 273 275
1102 1102 273 276
1103 1103 272 274
1104 1104 274 275
1105 1105 274 276
1106 1106 274 282
1107 1107 273 277
1108 1108 274 277
1109 1109 283 284
1110 1110 281 283
1111 1111 282 283
1112 1112 282 284
1113 1113 272 275
1114 1114 272 276
1115 1115 275 276
1116 1116 275 277
1117 1117 276 277
1118 1118 275 278
1119 1119 276 278
1120 1120 280 281
1121 1121 280 282
1122 1122 281 282
1123 1123 278 280
1124 1124 279 280
1125 1125 278 281
1126 1126 279 281
1127 1127 278 282
1128 1128 279 282
1129 1129 277 278
1130 1130 277 279
1131 1131 277 281
1132 1132 277 282
1133 1133 278 279

Bond Coeffs

1 10.0 5.0
2 10.0 5.0
3 10.0 5.0
4 10.0 5.0
5 10.0 5.0
6 10.0 5.0
7 10.0 5.0
8 10.0 5.0
9 10.0 5.0
10 10.0 5.0
11 10.0 5.0
12 10.0 5.0
13 10.0 5.0
14 10.0 5.0
15 10.0 5.0
16 10.0 5.0
17 10.0 5.0
18 10.0 5.0
19 10.0 5.0
20 10.0 5.0
21 10.0 5.0
22 10.0 5.0
23 10.0 5.0
24 10.0 5.0
25 10.0 5.0
26 10.0 5.0
27 10.0 5.0
28 10.0 5.0
29 10.0 5.0
30 10.0 5.0
31 10.0 5.0
32 10.0 5.0
33 10.0 5.0
34 10.0 5.0
35 10.0 5.0
36 10.0 5.0
37 10.0 5.0
38 10.0 5.0
39 10.0 5.0
40 10.0 5.0
41 10.0 5.0
42 10.0 5.0
43 10.0 5.0
44 10.0 5.0
45 10.0 5.0
46 10.0 5.0
47 10.0 5.0
48 10.0 5.0
49 10.0 5.0
50 10.0 5.0
51 10.0 5.0
52 10.0 5.0
53 10.0 5.0
54 10.0 5.0
55 10.0 5.0
56 10.0 5.0
57 10.0 5.0
58 10.0 5.0
59 10.0 5.0
60 10.0 5.0
61 10.0 5.0
62 10.0 5.0
63 10.0 5.0
64 10.0 5.0
65 10.0 5.0
66 10.0 5.0
67 10.0 5.0
68 10.0 5.0
69 10.0 5.0
70 10.0 5.0
71 10.0 5.0
72 10.0 5.0
73 10.0 5.0
74 10.0 5.0
75 10.0 5.0
76 10.0 5.0
77 10.0 5.0
78 10.0 5.0
79 10.0 5.0
80 10.0 5.0
81 10.0 5.0
82 10.0 5.0
83 10.0 5.0
84 10.0 5.0
85 10.0 5.0
86 10.0 5.0
87 10.0 5.0
88 10.0 5.0
89 10.0 5.0
90 10.0 5.0
91 10.0 5.0
92 10.0 5.0
93 10.0 5.0
94 10.0 5.0
95 10.0 5.0
96 10.0 5.0
97 10.0 5.0
98 10.0 5.0
99 10.0 5.0
100 10.0 5.0
101 10.0 5.0
102 10.0 5.0
103 10.0 5.0
104 10.0 5.0
105 10.0 5.0
106 10.0 5.0
107 10.0 5.0
108 10.0 5.0
109 10.0 5.0
110 10.0 5.0
111 10.0 5.0
112 10.0 5.0
113 10.0 5.0
114 10.0 5.0
115 10.0 5.0
116 10.0 5.0
117 10.0 5.0
118 10.0 5.0
119 10.0 5.0
120 10.0 5.0
121 10.0 5.0
122 10.0 5.0
123 10.0 5.0
124 10.0 5.0
125 10.0 5.0
126 10.0 5.0
127 10.0 5.0
128 10.0 5.0
129 10.0 5.0
130 10.0 5.0
131 10.0 5.0
132 10.0 5.0
133 10.0 5.0
134 10.0 5.0
135 10.0 5.0
136 10.0 5.0
137 10.0 5.0
138 10.0 5.0
139 10.0 5.0
140 10.0 5.0
141 10.0 5.0
142 10.0 5.0
143 10.0 5.0
144 10.0 5.0
145 10.0 5.0
146 10.0 5.0
147 10.0 5.0
148 10.0 5.0
149 10.0 5.0
150 10.0 5.0
151 10.0 5.0
152 10.0 5.0
153 10.0 5.0
154 10.0 5.0
155 10.0 5.0
156 10.0 5.0
157 10.0 5.0
158 10.0 5.0
159 10.0 5.0
160 10.0 5.0
161 10.0 5.0
162 10.0 5.0
163 10.0 5.0
164 10.0 5.0
165 10.0 5.0
166 10.0 5.0
167 10.0 5.0
168 10.0 5.0
169 10.0 5.0
170 10.0 5.0
171 10.0 5.0
172 10.0 5.0
173 10.0 5.0
174 10.0 5.0
175 10.0 5.0
176 10.0 5.0
177 10.0 5.0
178 10.0 5.0
179 10.0 5.0
180 10.0 5.0
181 10.0 5.0
182 10.0 5.0
183 10.0 5.0
184 10.0 5.0
185 10.0 5.0
186 10.0 5.0
187 10.0 5.0
188 10.0 5.0
189 10.0 5.0
190 10.0 5.0
191 10.0 5.0
192 10.0 5.0
193 10.0 5.0
194 10.0 5.0
195 10.0 5.0
196 10.0 5.0
197 10.0 5.0
198 10.0 5.0
199 10.0 5.0
200 10.0 5.0
201 10.0 5.0
202 10.0 5.0
203 10.0 5.0
204 10.0 5.0
205 10.0 5.0
206 10.0 5.0
207 10.0 5.0
208 10.0 5.0
209 10.0 5.0
210 10.0 5.0
211 10.0 5.0
212 10.0 5.0
213 10.0 5.0
214 10.0 5.0
215 10.0 5.0
216 10.0 5.0
217 10.0 5.0
218 10.0 5.0
219 10.0 5.0
220 10.0 5.0
221 10.0 5.0
222 10.0 5.0
223 10.0 5.0
224 10.0 5.0
225 10.0 5.0
226 10.0 5.0
227 10.0 5.0
228 10.0 5.0
229 10.0 5.0
230 10.0 5.0
231 10.0 5.0
232 10.0 5.0
233 10.0 5.0
234 10.0 5.0
235 10.0 5.0
236 10.0 5.0
237 10.0 5.0
238 10.0 5.0
239 10.0 5.0
240 10.0 5.0
241 10.0 5.0
242 10.0 5.0
243 10.0 5.0
244 10.0 5.0
245 10.0 5.0
246 10.0 5.0
247 10.0 5.0
248 10.0 5.0
249 10.0 5.0
250 10.0 5.0
251 10.0 5.0
252 10.0 5.0
253 10.0 5.0
254 10.0 5.0
255 10.0 5.0
256 10.0 5.0
257 10.0 5.0
258 10.0 5.0
259 10.0 5.0
260 10.0 5.0
261 10.0 5.0
262 10.0 5.0
263 10.0 5.0
264 10.0 5.0
265 10.0 5.0
266 10.0 5.0
267 10.0 5.0
268 10.0 5.0
269 10.0 5.0
270 10.0 5.0
271 10.0 5.0
272 10.0 5.0
273 10.0 5.0
274 10.0 5.0
275 10.0 5.0
276 10.0 5.0
277 10.0 5.0
278 10.0 5.0
279 10.0 5.0
280 10.0 5.0
281 10.0 5.0
282 10.0 5.0
283 10.0 5.0
284 10.0 5.0
285 10.0 5.0
286 10.0 5.0
287 10.0 5.0
288 10.0 5.0
289 10.0 5.0
290 10.0 5.0
291 10.0 5.0
292 10.0 5.0
293 10.0 5.0
294 10.0 5.0
295 10.0 5.0
296 10.0 5.0
297 10.0 5.0
298 10.0 5.0
299 10.0 5.0
300 10.0 5.0
301 10.0 5.0
302 10.0 5.0
303 10.0 5.0
304 10.0 5.0
305 10.0 5.0
306 10.0 5.0
307 10.0 5.0
308 10.0 5.0
309 10.0 5.0
310 10.0 5.0
311 10.0 5.0
312 10.0 5.0
313 10.0 5.0
314 10.0 5.0
315 10.0 5.0
316 10.0 5.0
317 10.0 5.0
318 10.0 5.0
319 10.0 5.0
320 10.0 5.0
321 10.0 5.0
322 10.0 5.0
323 10.0 5.0
324 10.0 5.0
325 10.0 5.0
326 10.0 5.0
327 10.0 5.0
328 10.0 5.0
329 10.0 5.0
330 10.0 5.0
331 10.0 5.0
332 10.0 5.0
333 10.0 5.0
334 10.0 5.0
335 10.0 5.0
336 10.0 5.0
337 10.0 5.0
338 10.0 5.0
339 10.0 5.0
340 10.0 5.0
341 10.0 5.0
342 10.0 5.0
343 10.0 5.0
344 10.0 5.0
345 10.0 5.0
346 10.0 5.0
347 10.0 5.0
348 10.0 5.0
349 10.0 5.0
350 10.0 5.0
351 10.0 5.0
352 10.0 5.0
353 10.0 5.0
354 10.0 5.0
355 10.0 5.0
356 10.0 5.0
357 10.0 5.0
358 10.0 5.0
359 10.0 5.0
360 10.0 5.0
361 10.0 5.0
362 10.0 5.0
363 10.0 5.0
364 10.0 5.0
365 10.0 5.0
366 10.0 5.0
367 10.0 5.0
368 10.0 5.0
369 10.0 5.0
370 10.0 5.0
371 10.0 5.0
372 10.0 5.0
373 10.0 5.0
374 10.0 5.0
375 10.0 5.0
376 10.0 5.0
377 10.0 5.0
378 10.0 5.0
379 10.0 5.0
380 10.0 5.0
381 10.0 5.0
382 10.0 5.0
383 10.0 5.0
384 10.0 5.0
385 10.0 5.0
386 10.0 5.0
387 10.0 5.0
388 10.0 5.0
389 10.0 5.0
390 10.0 5.0
391 10.0 5.0
392 10.0 5.0
393 10.0 5.0
394 10.0 5.0
395 10.0 5.0
396 10.0 5.0
397 10.0 5.0
398 10.0 5.0
399 10.0 5.0
400 10.0 5.0
401 10.0 5.0
402 10.0 5.0
403 10.0 5.0
404 10.0 5.0
405 10.0 5.0
406 10.0 5.0
407 10.0 5.0
408 10.0 5.0
409 10.0 5.0
410 10.0 5.0
411 10.0 5.0
412 10.0 5.0
413 10.0 5.0
414 10.0 5.0
415 10.0 5.0
416 10.0 5.0
417 10.0 5.0
418 10.0 5.0
419 10.0 5.0
420 10.0 5.0
421 10.0 5.0
422 10.0 5.0
423 10.0 5.0
424 10.0 5.0
425 10.0 5.0
426 10.0 5.0
427 10.0 5.0
428 10.0 5.0
429 10.0 5.0
430 10.0 5.0
431 10.0 5.0
432 10.0 5.0
433 10.0 5.0
434 10.0 5.0
435 10.0 5.0
436 10.0 5.0
437 10.0 5.0
438 10.0 5.0
439 10.0 5.0
440 10.0 5.0
441 10.0 5.0
442 10.0 5.0
443 10.0 5.0
444 10.0 5.0
445 10.0 5.0
446 10.0 5.0
447 10.0 5.0
448 10.0 5.0
449 10.0 5.0
450 10.0 5.0
451 10.0 5.0
452 10.0 5.0
453 10.0 5.0
454 10.0 5.0
455 10.0 5.0
456 10.0 5.0
457 10.0 5.0
458 10.0 5.0
459 10.0 5.0
460 10.0 5.0
461 10.0 5.0
462 10.0 5.0
463 10.0 5.0
464 10.0 5.0
465 10.0 5.0
466 10.0 5.0
467 10.0 5.0
468 10.0 5.0
469 10.0 5.0
470 10.0 5.0
471 10.0 5.0
472 10.0 5.0
473 10.0 5.0
474 10.0 5.0
475 10.0 5.0
476 10.0 5.0
477 10.0 5.0
478 10.0 5.0
479 10.0 5.0
480 10.0 5.0
481 10.0 5.0
482 10.0 5.0
483 10.0 5.0
484 10.0 5.0
485 10.0 5.0
486 10.0 5.0
487 10.0 5.0
488 10.0 5.0
489 10.0 5.0
490 10.0 5.0
491 10.0 5.0
492 10.0 5.0
493 10.0 5.0
494 10.0 5.0
495 10.0 5.0
496 10.0 5.0
497 10.0 5.0
498 10.0 5.0
499 10.0 5.0
500 10.0 5.0
501 10.0 5.0
502 10.0 5.0
503 10.0 5.0
504 10.0 5.0
505 10.0 5.0
506 10.0 5.0
507 10.0 5.0
508 10.0 5.0
509 10.0 5.0
510 10.0 5.0
511 10.0 5.0
512 10.0 5.0
513 10.0 5.0
514 10.0 5.0
515 10.0 5.0
516 10.0 5.0
517 10.0 5.0
518 10.0 5.0
519 10.0 5.0
520 10.0 5.0
521 10.0 5.0
522 10.0 5.0
523 10.0 5.0
524 10.0 5.0
525 10.0 5.0
526 10.0 5.0
527 10.0 5.0
528 10.0 5.0
529 10.0 5.0
530 10.0 5.0
531 10.0 5.0
532 10.0 5.0
533 10.0 5.0
534 10.0 5.0
535 10.0 5.0
536 10.0 5.0
537 10.0 5.0
538 10.0 5.0
539 10.0 5.0
540 10.0 5.0
541 10.0 5.0
542 10.0 5.0
543 10.0 5.0
544 10.0 5.0
545 10.0 5.0
546 10.0 5.0
547 10.0 5.0
548 10.0 5.0
549 10.0 5.0
550 10.0 5.0
551 10.0 5.0
552 10.0 5.0
553 10.0 5.0
554 10.0 5.0
555 10.0 5.0
556 10.0 5.0
557 10.0 5.0
558 10.0 5.0
559 10.0 5.0
560 10.0 5.0
561 10.0 5.0
562 10.0 5.0
563 10.0 5.0
564 10.0 5.0
565 10.0 5.0
566 10.0 5.0
567 10.0 5.0
568 10.0 5.0
569 10.0 5.0
570 10.0 5.0
571 10.0 5.0
572 10.0 5.0
573 10.0 5.0
574 10.0 5.0
575 10.0 5.0
576 10.0 5.0
577 10.0 5.0
578 10.0 5.0
579 10.0 5.0
580 10.0 5.0
581 10.0 5.0
582 10.0 5.0
583 10.0 5.0
584 10.0 5.0
585 10.0 5.0
586 10.0 5.0
587 10.0 5.0
588 10.0 5.0
589 10.0 5.0
590 10.0 5.0
591 10.0 5.0
592 10.0 5.0
593 10.0 5.0
594 10.0 5.0
595 10.0 5.0
596 10.0 5.0
597 10.0 5.0
598 10.0 5.0
599 10.0 5.0
600 10.0 5.0
601 10.0 5.0
602 10.0 5.0
603 10.0 5.0
604 10.0 5.0
605 10.0 5.0
606 10.0 5.0
607 10.0 5.0
608 10.0 5.0
609 10.0 5.0
610 10.0 5.0
611 10.0 5.0
612 10.0 5.0
613 10.0 5.0
614 10.0 5.0
615 10.0 5.0
616 10.0 5.0
617 10.0 5.0
618 10.0 5.0
619 10.0 5.0
620 10.0 5.0
621 10.0 5.0
622 10.0 5.0
623 10.0 5.0
624 10.0 5.0
625 10.0 5.0
626 10.0 5.0
627 10.0 5.0
628 10.0 5.0
629 10.0 5.0
630 10.0 5.0
631 10.0 5.0
632 10.0 5.0
633 10.0 5.0
634 10.0 5.0
635 10.0 5.0
636 10.0 5.0
637 10.0 5.0
638 10.0 5.0
639 10.0 5.0
640 10.0 5.0
641 10.0 5.0
642 10.0 5.0
643 10.0 5.0
644 10.0 5.0
645 10.0 5.0
646 10.0 5.0
647 10.0 5.0
648 10.0 5.0
649 10.0 5.0
650 10.0 5.0
651 10.0 5.0
652 10.0 5.0
653 10.0 5.0
654 10.0 5.0
655 10.0 5.0
656 10.0 5.0
657 10.0 5.0
658 10.0 5.0
659 10.0 5.0
660 10.0 5.0
661 10.0 5.0
662 10.0 5.0
663 10.0 5.0
664 10.0 5.0
665 10.0 5.0
666 10.0 5.0
667 10.0 5.0
668 10.0 5.0
669 10.0 5.0
670 10.0 5.0
671 10.0 5.0
672 10.0 5.0
673 10.0 5.0
674 10.0 5.0
675 10.0 5.0
676 10.0 5.0
677 10.0 5.0
678 10.0 5.0
679 10.0 5.0
680 10.0 5.0
681 10.0 5.0
682 10.0 5.0
683 10.0 5.0
684 10.0 5.0
685 10.0 5.0
686 10.0 5.0
687 10.0 5.0
688 10.0 5.0
689 10.0 5.0
690 10.0 5.0
691 10.0 5.0
692 10.0 5.0
693 10.0 5.0
694 10.0 5.0
695 10.0 5.0
696 10.0 5.0
697 10.0 5.0
698 10.0 5.0
699 10.0 5.0
700 10.0 5.0
701 10.0 5.0
702 10.0 5.0
703 10.0 5.0
704 10.0 5.0
705 10.0 5.0
706 10.0 5.0
707 10.0 5.0
708 10.0 5.0
709 10.0 5.0
710 10.0 5.0
711 10.0 5.0
712 10.0 5.0
713 10.0 5.0
714 10.0 5.0
715 10.0 5.0
716 10.0 5.0
717 10.0 5.0
718 10.0 5.0
719 10.0 5.0
720 10.0 5.0
721 10.0 5.0
722 10.0 5.0
723 10.0 5.0
724 10.0 5.0
725 10.0 5.0
726 10.0 5.0
727 10.0 5.0
728 10.0 5.0
729 10.0 5.0
730 10.0 5.0
731 10.0 5.0
732 10.0 5.0
733 10.0 5.0
734 10.0 5.0
735 10.0 5.0
736 10.0 5.0
737 10.0 5.0
738 10.0 5.0
739 10.0 5.0
740 10.0 5.0
741 10.0 5.0
742 10.0 5.0
743 10.0 5.0
744 10.0 5.0
745 10.0 5.0
746 10.0 5.0
747 10.0 5.0
748 10.0 5.0
749 10.0 5.0
750 10.0 5.0
751 10.0 5.0
752 10.0 5.0
753 10.0 5.0
754 10.0 5.0
755 10.0 5.0
756 10.0 5.0
757 10.0 5.0
758 10.0 5.0
759 10.0 5.0
760 10.0 5.0
761 10.0 5.0
762 10.0 5.0
763 10.0 5.0
764 10.0 5.0
765 10.0 5.0
766 10.0 5.0
767 10.0 5.0
768 10.0 5.0
769 10.0 5.0
770 10.0 5.0
771 10.0 5.0
772 10.0 5.0
773 10.0 5.0
774 10.0 5.0
775 10.0 5.0
776 10.0 5.0
777 10.0 5.0
778 10.0 5.0
779 10.0 5.0
780 10.0 5.0
781 10.0 5.0
782 10.0 5.0
783 10.0 5.0
784 10.0 5.0
785 10.0 5.0
786 10.0 5.0
787 10.0 5.0
788 10.0 5.0
789 10.0 5.0
790 10.0 5.0
791 10.0 5.0
792 10.0 5.0
793 10.0 5.0
794 10.0 5.0
795 10.0 5.0
796 10.0 5.0
797 10.0 5.0
798 10.0 5.0
799 10.0 5.0
800 10.0 5.0
801 10.0 5.0
802 10.0 5.0
803 10.0 5.0
804 10.0 5.0
805 10.0 5.0
806 10.0 5.0
807 10.0 5.0
808 10.0 5.0
809 10.0 5.0
810 10.0 5.0
811 10.0 5.0
812 10.0 5.0
813 10.0 5.0
814 10.0 5.0
815 10.0 5.0
816 10.0 5.0
817 10.0 5.0
818 10.0 5.0
819 10.0 5.0
820 10.0 5.0
821 10.0 5.0
822 10.0 5.0
823 10.0 5.0
824 10.0 5.0
825 10.0 5.0
826 10.0 5.0
827 10.0 5.0
828 10.0 5.0
829 10.0 5.0
830 10.0 5.0
831 10.0 5.0
832 10.0 5.0
833 10.0 5.0
834 10.0 5.0
835 10.0 5.0
836 10.0 5.0
837 10.0 5.0
838 10.0 5.0
839 10.0 5.0
840 10.0 5.0
841 10.0 5.0
842 10.0 5.0
843 10.0 5.0
844 10.0 5.0
845 10.0 5.0
846 10.0 5.0
847 10.0 5.0
848 10.0 5.0
849 10.0 5.0
850 10.0 5.0
851 10.0 5.0
852 10.0 5.0
853 10.0 5.0
854 10.0 5.0
855 10.0 5.0
856 10.0 5.0
857 10.0 5.0
858 10.0 5.0
859 10.0 5.0
860 10.0 5.0
861 10.0 5.0
862 10.0 5.0
863 10.0 5.0
864 10.0 5.0
865 10.0 5.0
866 10.0 5.0
867 10.0 5.0
868 10.0 5.0
869 10.0 5.0
870 10.0 5.0
871 10.0 5.0
872 10.0 5.0
873 10.0 5.0
874 10.0 5.0
875 10.0 5.0
876 10.0 5.0
877 10.0 5.0
878 10.0 5.0
879 10.0 5.0
880 10.0 5.0
881 10.0 5.0
882 10.0 5.0
883 10.0 5.0
884 10.0 5.0
885 10.0 5.0
886 10.0 5.0
887 10.0 5.0
888 10.0 5.0
889 10.0 5.0
890 10.0 5.0
891 10.0 5.0
892 10.0 5.0
893 10.0 5.0
894 10.0 5.0
895 10.0 5.0
896 10.0 5.0
897 10.0 5.0
898 10.0 5.0
899 10.0 5.0
900 10.0 5.0
901 10.0 5.0
902 10.0 5.0
903 10.0 5.0
904 10.0 5.0
905 10.0 5.0
906 10.0 5.0
907 10.0 5.0
908 10.0 5.0
909 10.0 5.0
910 10.0 5.0
911 10.0 5.0
912 10.0 5.0
913 10.0 5.0
914 10.0 5.0
915 10.0 5.0
916 10.0 5.0
917 10.0 5.0
918 10.0 5.0
919 10.0 5.0
920 10.0 5.0
921 10.0 5.0
922 10.0 5.0
923 10.0 5.0
924 10.0 5.0
925 10.0 5.0
926 10.0 5.0
927 10.0 5.0
928 10.0 5.0
929 10.0 5.0
930 10.0 5.0
931 10.0 5.0
932 10.0 5.0
933 10.0 5.0
934 10.0 5.0
935 10.0 5.0
936 10.0 5.0
937 10.0 5.0
938 10.0 5.0
939 10.0 5.0
940 10.0 5.0
941 10.0 5.0
942 10.0 5.0
943 10.0 5.0
944 10.0 5.0
945 10.0 5.0
946 10.0 5.0
947 10.0 5.0
948 10.0 5.0
949 10.0 5.0
950 10.0 5.0
951 10.0 5.0
952 10.0 5.0
953 10.0 5.0
954 10.0 5.0
955 10.0 5.0
956 10.0 5.0
957 10.0 5.0
958 10.0 5.0
959 10.0 5.0
960 10.0 5.0
961 10.0 5.0
962 10.0 5.0
963 10.0 5.0
964 10.0 5.0
965 10.0 5.0
966 10.0 5.0
967 10.0 5.0
968 10.0 5.0
969 10.0 5.0
970 10.0 5.0
971 10.0 5.0
972 10.0 5.0
973 10.0 5.0
974 10.0 5.0
975 10.0 5.0
976 10.0 5.0
977 10.0 5.0
978 10.0 5.0
979 10.0 5.0
980 10.0 5.0
981 10.0 5.0
982 10.0 5.0
983 10.0 5.0
984 10.0 5.0
985 10.0 5.0
986 10.0 5.0
987 10.0 5.0
988 10.0 5.0
989 10.0 5.0
990 10.0 5.0
991 10.0 5.0
992 10.0 5.0
993 10.0 5.0
994 10.0 5.0
995 10.0 5.0
996 10.0 5.0
997 10.0 5.0
998 10.0 5.0
999 10.0 5.0
1000 10.0 5.0
1001 10.0 5.0
1002 10.0 5.0
1003 10.0 5.0
1004 10.0 5.0
1005 10.0 5.0
1006 10.0 5.0
1007 10.0 5.0
1008 10.0 5.0
1009 10.0 5.0
1010 10.0 5.0
1011 10.0 5.0
1012 10.0 5.0
1013 10.0 5.0
1014 10.0 5.0
1015 10.0 5.0
1016 10.0 5.0
1017 10.0 5.0
1018 10.0 5.0
1019 10.0 5.0
1020 10.0 5.0
1021 10.0 5.0
1022 10.0 5.0
1023 10.0 5.0
1024 10.0 5.0
1025 10.0 5.0
1026 10.0 5.0
1027 10.0 5.0
1028 10.0 5.0
1029 10.0 5.0
1030 10.0 5.0
1031 10.0 5.0
1032 10.0 5.0
1033 10.0 5.0
1034 10.0 5.0
1035 10.0 5.0
1036 10.0 5.0
1037 10.0 5.0
1038 10.0 5.0
1039 10.0 5.0
1040 10.0 5.0
1041 10.0 5.0
1042 10.0 5.0
1043 10.0 5.0
1044 10.0 5.0
1045 10.0 5.0
1046 10.0 5.0
1047 10.0 5.0
1048 10.0 5.0
1049 10.0 5.0
1050 10.0 5.0
1051 10.0 5.0
1052 10.0 5.0
1053 10.0 5.0
1054 10.0 5.0
1055 10.0 5.0
1056 10.0 5.0
1057 10.0 5.0
1058 10.0 5.0
1059 10.0 5.0
1060 10.0 5.0
1061 10.0 5.0
1062 10.0 5.0
1063 10.0 5.0
1064 10.0 5.0
1065 10.0 5.0
1066 10.0 5.0
1067 10.0 5.0
1068 10.0 5.0
1069 10.0 5.0
1070 10.0 5.0
1071 10.0 5.0
1072 10.0 5.0
1073 10.0 5.0
1074 10.0 5.0
1075 10.0 5.0
1076 10.0 5.0
1077 10.0 5.0
1078 10.0 5.0
1079 10.0 5.0
1080 10.0 5.0
1081 10.0 5.0
1082 10.0 5.0
1083 10.0 5.0
1084 10.0 5.0
1085 10.0 5.0
1086 10.0 5.0
1087 10.0 5.0
1088 10.0 5.0
1089 10.0 5.0
1090 10.0 5.0
1091 10.0 5.0
1092 10.0 5.0
1093 10.0 5.0
1094 10.0 5.0
1095 10.0 5.0
1096 10.0 5.0
1097 10.0 5.0
1098 10.0 5.0
1099 10.0 5.0
1100 10.0 5.0
1101 10.0 5.0
1102 10.0 5.0
1103 10.0 5.0
1104 10.0 5.0
1105 10.0 5.0
1106 10.0 5.0
1107 10.0 5.0
1108 10.0 5.0
1109 10.0 5.0
1110 10.0 5.0
1111 10.0 5.0
1112 10.0 5.0
1113 10.0 5.0
1114 10.0 5.0
1115 10.0 5.0
1116 10.0 5.0
1117 10.0 5.0
1118 10.0 5.0
1119 10.0 5.0
1120 10.0 5.0
1121 10.0 5.0
1122 10.0 5.0
1123 10.0 5.0
1124 10.0 5.0
1125 10.0 5.0
1126 10.0 5.0
1127 10.0 5.0
1128 10.0 5.0
1129 10.0 5.0
1130 10.0 5.0
1131 10.0 5.0
1132 10.0 5.0
1133 10.0 5.0
