LAMMPS data file: CG HBV dimer

298 atoms
1291 bonds

1 atom types
1291 bond types

-127.5625 127.5625 xlo xhi
-127.5625 127.5625 ylo yhi
-127.5625 127.5625 zlo zhi

Masses

1 110.0

Atoms # bond 

1 1 1 9.072728 -8.275282 -12.327487
2 1 1 6.787728 -5.293282 -11.879487
3 1 1 3.420728 -4.896282 -9.936487
4 1 1 0.639728 -3.493282 -12.167487
5 1 1 -1.093272 -0.960282 -9.733487
6 1 1 -4.717272 -0.946282 -10.835487
7 1 1 -4.930272 -4.058282 -13.076487
8 1 1 -6.371272 -6.675282 -10.499487
9 1 1 -9.276272 -4.311282 -9.946487
10 1 1 -9.611272 -3.847282 -13.813487
11 1 1 -7.761272 -0.704282 -14.770487
12 1 1 -4.582272 -0.140282 -16.803487
13 1 1 -2.082272 2.714718 -15.975487
14 1 1 -2.974272 3.940718 -19.523487
15 1 1 -6.708272 3.985718 -18.710487
16 1 1 -6.029272 6.255718 -15.661487
17 1 1 -3.567272 8.387718 -17.825487
18 1 1 -6.293272 8.809718 -20.402487
19 1 1 -8.086272 11.137718 -18.050487
20 1 1 -6.816272 14.737718 -17.090487
21 1 1 -4.282272 14.686718 -14.067487
22 1 1 -6.218272 17.244718 -12.241487
23 1 1 -9.657272 15.427718 -12.223487
24 1 1 -9.106272 13.507718 -8.909487
25 1 1 -9.799272 14.910718 -5.415487
26 1 1 -6.892272 16.257718 -3.308487
27 1 1 -4.561272 14.711718 -0.802487
28 1 1 -6.675272 16.261718 1.999513
29 1 1 -10.005272 15.626718 0.071513
30 1 1 -9.745272 11.914718 -0.457487
31 1 1 -8.700272 11.577718 3.238513
32 1 1 -11.792272 13.724718 4.206513
33 1 1 -14.171272 11.842718 1.926513
34 1 1 -12.788272 8.410718 3.198513
35 1 1 -13.458272 9.591718 6.776513
36 1 1 -16.990272 11.028718 6.037513
37 1 1 -18.521272 8.232718 3.967513
38 1 1 -16.332272 5.203718 4.851513
39 1 1 -15.597272 5.401718 8.616513
40 1 1 -16.061272 1.851718 9.851513
41 1 1 -14.340272 0.561718 6.722513
42 1 1 -11.157272 2.394718 7.902513
43 1 1 -11.451272 0.646718 11.387513
44 1 1 -12.401272 -2.824282 10.075513
45 1 1 -11.256272 -6.061282 11.801513
46 1 1 -12.804272 -7.741282 8.577513
47 1 1 -11.248272 -7.891282 5.121513
48 1 1 -14.526272 -7.871282 3.122513
49 1 1 -14.317272 -7.104282 -0.700487
50 1 1 -10.826272 -6.572282 -2.382487
51 1 1 -11.466272 -2.828282 -2.513487
52 1 1 -11.733272 -2.550282 1.258513
53 1 1 -8.343272 -4.131282 1.915513
54 1 1 -6.617272 -2.127282 -0.836487
55 1 1 -8.119272 1.071718 0.504513
56 1 1 -6.742272 0.503718 3.987513
57 1 1 -3.299272 -0.344282 2.680513
58 1 1 -3.213272 2.786718 0.462513
59 1 1 -3.765272 5.157718 3.399513
60 1 1 -0.959272 3.306718 5.169513
61 1 1 1.403728 3.558718 2.095513
62 1 1 1.151728 7.447718 2.174513
63 1 1 1.546728 7.231718 5.938513
64 1 1 5.118728 6.035718 5.772513
65 1 1 5.601728 8.479718 2.815513
66 1 1 4.463728 11.585718 4.574513
67 1 1 6.295728 10.478718 7.769513
68 1 1 9.583728 10.580718 5.532513
69 1 1 8.447728 13.835718 3.753513
70 1 1 7.934728 15.489718 7.152513
71 1 1 11.302728 14.211718 8.460513
72 1 1 13.164728 15.238718 5.326513
73 1 1 11.746728 18.868718 5.586513
74 1 1 12.923728 18.877718 9.260513
75 1 1 16.480728 17.752718 8.222513
76 1 1 16.532728 20.496718 5.464513
77 1 1 17.472728 24.015718 6.558513
78 1 1 15.917728 25.784718 3.525513
79 1 1 12.181728 26.927718 3.765513
80 1 1 11.894728 26.979718 -0.048487
81 1 1 13.045728 23.290718 -0.454487
82 1 1 10.424728 22.258718 2.219513
83 1 1 7.832728 23.589718 -0.167487
84 1 1 9.505728 21.621718 -2.895487
85 1 1 9.416728 18.302718 -0.982487
86 1 1 5.636728 18.562718 -0.058487
87 1 1 5.044728 19.645718 -3.723487
88 1 1 6.946728 16.545718 -5.179487
89 1 1 5.054728 14.388718 -2.685487
90 1 1 1.685728 15.950718 -3.592487
91 1 1 2.500728 15.926718 -7.390487
92 1 1 5.168728 13.507718 -8.857487
93 1 1 4.527728 10.680718 -6.456487
94 1 1 1.069728 11.770718 -4.909487
95 1 1 -0.747272 11.829718 -8.194487
96 1 1 -0.495272 8.011718 -8.366487
97 1 1 -1.659272 7.983718 -4.700487
98 1 1 -4.669272 10.189718 -5.622487
99 1 1 -5.487272 7.783718 -8.580487
100 1 1 -5.117272 4.593718 -6.449487
101 1 1 -7.387272 5.731718 -3.387487
102 1 1 -9.884272 7.634718 -5.718487
103 1 1 -10.173272 4.424718 -7.778487
104 1 1 -10.852272 2.294718 -4.824487
105 1 1 -13.436272 4.751718 -3.434487
106 1 1 -15.265272 5.069718 -6.776487
107 1 1 -15.282272 1.312718 -7.315487
108 1 1 -16.311272 0.570718 -3.738487
109 1 1 -19.127272 3.136718 -3.897487
110 1 1 -20.539272 2.424718 -7.421487
111 1 1 -18.952272 -0.876282 -8.659487
112 1 1 -16.223272 -1.215282 -11.270487
113 1 1 -17.764272 -1.396282 -14.747487
114 1 1 -19.807272 1.844718 -14.659487
115 1 1 -16.670272 3.505718 -13.462487
116 1 1 -14.572272 1.702718 -16.277487
117 1 1 -17.246272 2.905718 -18.838487
118 1 1 -17.220272 6.324718 -17.157487
119 1 1 -13.426272 6.515718 -17.832487
120 1 1 -13.637272 6.138718 -21.646487
121 1 1 -16.688272 8.264718 -21.757487
122 1 1 -15.319272 11.189718 -19.617487
123 1 1 -12.255272 10.741718 -21.948487
124 1 1 -14.219272 10.942718 -25.158487
125 1 1 -16.123272 13.952718 -23.772487
126 1 1 -12.813272 15.753718 -22.864487
127 1 1 -11.079272 14.659718 -26.213487
128 1 1 -14.186272 15.899718 -27.963487
129 1 1 -13.128272 19.453718 -28.636487
130 1 1 -14.349272 22.176718 -26.235487
131 1 1 -17.023272 23.929718 -28.499487
132 1 1 -18.210272 20.749718 -30.169487
133 1 1 -18.926272 19.118718 -26.764487
134 1 1 -22.289272 17.735718 -25.604487
135 1 1 -23.583272 20.126718 -22.836487
136 1 1 -23.533272 17.626718 -20.062487
137 1 1 -20.545272 15.392718 -19.428487
138 1 1 -21.141272 11.481718 -19.106487
139 1 1 -21.102272 10.239718 -15.523487
140 1 1 -21.259272 6.713718 -13.688487
141 1 1 -24.805272 5.235718 -12.969487
142 1 1 -26.197272 6.290718 -9.505487
143 1 1 -29.617272 4.883718 -10.184487
144 1 1 -29.561272 1.404718 -8.414487
145 1 1 -32.145272 0.207718 -10.744487
146 1 1 -34.076272 -1.703282 -8.039487
147 1 1 -36.671272 -0.722282 -5.388487
148 1 1 -34.649272 -1.910282 -2.325487
149 1 1 -32.107272 0.160718 -0.182487
150 1 1 -9.816272 6.241718 12.888513
151 1 1 -6.301272 6.463718 11.546513
152 1 1 -5.324272 2.862718 10.431513
153 1 1 -3.840272 0.067718 12.604513
154 1 1 -2.051272 -2.065282 9.972513
155 1 1 -2.771272 -5.707282 11.009513
156 1 1 -6.154272 -5.212282 12.593513
157 1 1 -8.010272 -6.752282 9.607513
158 1 1 -5.466272 -9.497282 9.441513
159 1 1 -5.906272 -10.746282 13.034513
160 1 1 -2.704272 -9.206282 14.521513
161 1 1 -0.971272 -6.385282 16.417513
162 1 1 1.881728 -3.892282 15.915513
163 1 1 2.587728 -4.450282 19.590513
164 1 1 3.745728 -8.095282 18.880513
165 1 1 5.253728 -7.322282 15.470513
166 1 1 7.493728 -4.467282 16.680513
167 1 1 8.742728 -6.452282 19.806513
168 1 1 10.692728 -8.796282 17.501513
169 1 1 14.474728 -8.130282 16.701513
170 1 1 15.515728 -6.687282 13.340513
171 1 1 17.854728 -9.728282 12.543513
172 1 1 14.955728 -12.136282 12.966513
173 1 1 13.389728 -10.619282 9.766513
174 1 1 14.953728 -11.339282 6.384513
175 1 1 15.944728 -8.253282 4.227513
176 1 1 13.442728 -6.452282 1.959513
177 1 1 15.622728 -7.903282 -0.853487
178 1 1 14.799728 -11.625282 0.060513
179 1 1 11.005728 -10.766282 0.496513
180 1 1 11.151728 -9.161282 -2.951487
181 1 1 12.919728 -12.249282 -4.288487
182 1 1 10.345728 -14.628282 -2.663487
183 1 1 7.488728 -12.589282 -4.171487
184 1 1 9.002728 -12.799282 -7.693487
185 1 1 10.085728 -16.487282 -7.253487
186 1 1 6.926728 -18.296282 -5.834487
187 1 1 4.071728 -15.864282 -6.327487
188 1 1 4.771728 -14.174282 -9.635487
189 1 1 1.658728 -15.726282 -11.175487
190 1 1 -0.651272 -14.472282 -8.464487
191 1 1 1.014728 -10.957282 -8.403487
192 1 1 0.498728 -10.656282 -12.303487
193 1 1 -3.080272 -12.120282 -11.788487
194 1 1 -6.218272 -10.573282 -13.708487
195 1 1 -8.240272 -11.931282 -10.868487
196 1 1 -8.474272 -11.558282 -7.025487
197 1 1 -6.466272 -14.138282 -4.902487
198 1 1 -6.249272 -13.220282 -1.148487
199 1 1 -6.016272 -10.131282 0.931513
200 1 1 -2.368272 -11.280282 1.647513
201 1 1 -1.557272 -11.272282 -2.097487
202 1 1 -3.159272 -7.808282 -2.398487
203 1 1 -1.196272 -6.432282 0.628513
204 1 1 1.828728 -7.897282 -1.027487
205 1 1 1.093728 -5.962282 -4.099487
206 1 1 0.361728 -2.773282 -2.125487
207 1 1 3.420728 -2.790282 0.108513
208 1 1 5.942728 -3.278282 -2.813487
209 1 1 4.228728 -0.156282 -4.498487
210 1 1 4.651728 1.466718 -1.080487
211 1 1 8.389728 0.729718 -0.868487
212 1 1 8.938728 1.739718 -4.421487
213 1 1 7.644728 5.261718 -4.136487
214 1 1 9.583728 5.433718 -0.787487
215 1 1 12.831728 4.511718 -2.513487
216 1 1 12.204728 6.961718 -5.452487
217 1 1 11.496728 9.827718 -2.953487
218 1 1 14.766728 9.031718 -0.946487
219 1 1 16.653728 8.807718 -4.183487
220 1 1 15.283728 12.020718 -5.660487
221 1 1 16.118728 13.794718 -2.305487
222 1 1 19.535728 12.189718 -2.248487
223 1 1 20.005728 13.319718 -5.836487
224 1 1 19.206728 16.932718 -4.896487
225 1 1 21.710728 17.128718 -2.044487
226 1 1 25.387728 17.361718 -2.839487
227 1 1 26.493728 16.042718 0.529513
228 1 1 27.246728 12.120718 0.575513
229 1 1 26.651728 11.996718 4.408513
230 1 1 23.252728 13.725718 4.107513
231 1 1 22.292728 10.981718 1.388513
232 1 1 23.603728 8.255718 3.801513
233 1 1 21.350728 9.966718 6.487513
234 1 1 18.178728 9.861718 4.297513
235 1 1 18.852728 6.424718 3.012513
236 1 1 19.628728 4.897718 6.406513
237 1 1 16.282728 6.383718 7.697513
238 1 1 14.549728 4.501718 4.800513
239 1 1 16.328728 1.123718 5.584513
240 1 1 15.876728 1.479718 9.442513
241 1 1 13.152728 3.832718 10.847513
242 1 1 10.795728 3.238718 7.884513
243 1 1 12.259728 -0.053282 6.580513
244 1 1 12.000728 -2.117282 9.687513
245 1 1 8.196728 -1.698282 9.301513
246 1 1 8.356728 -2.989282 5.662513
247 1 1 10.346728 -6.038282 6.753513
248 1 1 7.519728 -6.781282 9.306513
249 1 1 4.804728 -6.036282 6.806513
250 1 1 6.175728 -7.915282 3.762513
251 1 1 7.297728 -10.875282 6.030513
252 1 1 3.846728 -11.170282 7.718513
253 1 1 2.040728 -11.311282 4.242513
254 1 1 4.669728 -13.487282 2.575513
255 1 1 4.735728 -15.869282 5.387513
256 1 1 0.923728 -16.220282 5.582513
257 1 1 0.922728 -16.995282 1.852513
258 1 1 3.739728 -19.673282 2.381513
259 1 1 2.570728 -21.130282 5.641513
260 1 1 -1.040272 -20.054282 6.414513
261 1 1 -1.911272 -17.112282 8.804513
262 1 1 -2.823272 -19.193282 11.957513
263 1 1 0.325728 -21.376282 11.655513
264 1 1 2.534728 -18.169282 11.557513
265 1 1 0.966728 -16.405282 14.540513
266 1 1 1.198728 -19.543282 16.773513
267 1 1 4.879728 -19.595282 15.758513
268 1 1 5.139728 -15.967282 16.801513
269 1 1 3.224728 -16.590282 20.107513
270 1 1 5.584728 -19.486282 21.033513
271 1 1 8.606728 -17.217282 20.019513
272 1 1 7.256728 -14.425282 22.248513
273 1 1 7.180728 -16.320282 25.616513
274 1 1 10.912728 -17.255282 24.937513
275 1 1 11.972728 -13.561282 24.441513
276 1 1 9.823728 -12.612282 27.483513
277 1 1 11.712728 -15.385282 29.469513
278 1 1 15.101728 -13.953282 30.812513
279 1 1 18.129728 -15.399282 28.930513
280 1 1 19.405728 -17.948282 31.501513
281 1 1 15.952728 -19.227282 32.202513
282 1 1 15.246728 -20.354282 28.653513
283 1 1 16.635728 -22.986282 26.056513
284 1 1 19.655728 -21.776282 23.876513
285 1 1 17.993728 -22.367282 20.424513
286 1 1 15.297728 -19.920282 19.158513
287 1 1 12.088728 -21.468282 17.891513
288 1 1 12.536728 -22.581282 14.214513
289 1 1 10.057728 -21.838282 11.375513
290 1 1 7.378728 -24.512282 10.712513
291 1 1 7.229728 -26.931282 7.704513
292 1 1 5.452728 -26.164282 4.424513
293 1 1 1.763728 -27.150282 4.037513
294 1 1 1.122728 -30.343282 1.915513
295 1 1 1.187728 -29.455282 -1.793487
296 1 1 3.044728 -26.452282 -2.914487
297 1 1 3.584728 -27.134282 -6.643487
298 1 1 1.505728 -29.601282 -8.834487

Bonds # (bond_id bond_type atom_id_1 atom_id_2)

1 1 1 2
2 2 1 3
3 3 1 184
4 4 1 188
5 5 2 3
6 6 2 4
7 7 3 4
8 8 3 5
9 9 3 191
10 10 3 192
11 11 3 205
12 12 3 208
13 13 3 209
14 14 4 5
15 15 4 6
16 16 4 7
17 17 4 8
18 18 4 12
19 19 4 13
20 20 4 192
21 21 5 6
22 22 5 7
23 23 5 8
24 24 5 12
25 25 5 13
26 26 5 100
27 27 5 205
28 28 5 206
29 29 5 209
30 30 6 7
31 31 6 8
32 32 6 9
33 33 6 10
34 34 6 11
35 35 6 12
36 36 6 13
37 37 6 100
38 38 7 8
39 39 7 9
40 40 7 10
41 41 7 11
42 42 7 12
43 43 7 13
44 44 7 194
45 45 8 9
46 46 8 10
47 47 8 11
48 48 8 193
49 49 8 194
50 50 8 195
51 51 8 196
52 52 9 10
53 53 9 11
54 54 9 51
55 55 9 112
56 56 9 194
57 57 9 195
58 58 9 196
59 59 10 11
60 60 10 12
61 61 10 112
62 62 10 116
63 63 10 194
64 64 11 12
65 65 11 13
66 66 11 15
67 67 11 16
68 68 11 116
69 69 12 13
70 70 12 14
71 71 12 15
72 72 12 16
73 73 13 14
74 74 13 15
75 75 13 16
76 76 13 17
77 77 14 15
78 78 14 16
79 79 14 17
80 80 14 18
81 81 15 16
82 82 15 17
83 83 15 18
84 84 15 19
85 85 15 119
86 86 15 120
87 87 16 17
88 88 16 18
89 89 16 19
90 90 16 99
91 91 16 119
92 92 17 18
93 93 17 19
94 94 17 20
95 95 17 21
96 96 18 19
97 97 18 20
98 98 18 119
99 99 18 120
100 100 18 123
101 101 19 20
102 102 19 21
103 103 19 23
104 104 19 119
105 105 19 122
106 106 19 123
107 107 20 21
108 108 20 22
109 109 20 23
110 110 21 22
111 111 21 23
112 112 21 24
113 113 21 95
114 114 22 23
115 115 22 24
116 116 23 24
117 117 23 25
118 118 24 25
119 119 24 26
120 120 24 98
121 121 24 99
122 122 24 102
123 123 25 26
124 124 25 27
125 125 25 29
126 126 25 30
127 127 25 98
128 128 25 102
129 129 26 27
130 130 26 28
131 131 26 29
132 132 26 30
133 133 26 98
134 134 27 28
135 135 27 29
136 136 27 30
137 137 27 31
138 138 27 90
139 139 27 94
140 140 27 98
141 141 28 29
142 142 28 30
143 143 28 31
144 144 28 32
145 145 29 30
146 146 29 31
147 147 29 32
148 148 29 33
149 149 30 31
150 150 30 32
151 151 30 33
152 152 30 34
153 153 30 98
154 154 30 101
155 155 30 102
156 156 31 32
157 157 31 33
158 158 31 34
159 159 31 35
160 160 32 33
161 161 32 34
162 162 32 35
163 163 32 36
164 164 33 34
165 165 33 35
166 166 33 36
167 167 33 37
168 168 33 38
169 169 34 35
170 170 34 36
171 171 34 37
172 172 34 38
173 173 34 39
174 174 34 42
175 175 34 105
176 176 35 36
177 177 35 37
178 178 35 38
179 179 35 39
180 180 35 42
181 181 35 150
182 182 36 37
183 183 36 38
184 184 36 39
185 185 37 38
186 186 37 39
187 187 38 39
188 188 38 40
189 189 38 41
190 190 38 42
191 191 39 40
192 192 39 41
193 193 39 42
194 194 39 43
195 195 39 150
196 196 40 41
197 197 40 42
198 198 40 43
199 199 40 44
200 200 41 42
201 201 41 43
202 202 41 44
203 203 41 52
204 204 42 43
205 205 42 44
206 206 42 56
207 207 42 150
208 208 42 151
209 209 42 152
210 210 43 44
211 211 43 45
212 212 43 150
213 213 43 151
214 214 43 152
215 215 43 153
216 216 43 156
217 217 44 45
218 218 44 46
219 219 44 47
220 220 44 156
221 221 44 157
222 222 45 46
223 223 45 47
224 224 45 156
225 225 45 157
226 226 45 158
227 227 45 159
228 228 46 47
229 229 46 48
230 230 46 157
231 231 46 158
232 232 47 48
233 233 47 49
234 234 47 50
235 235 47 52
236 236 47 53
237 237 47 157
238 238 47 158
239 239 47 199
240 240 48 49
241 241 48 50
242 242 48 52
243 243 48 53
244 244 49 50
245 245 49 51
246 246 49 52
247 247 49 53
248 248 50 51
249 249 50 52
250 250 50 53
251 251 50 54
252 252 50 196
253 253 50 199
254 254 50 202
255 255 51 52
256 256 51 53
257 257 51 54
258 258 51 55
259 259 51 104
260 260 51 105
261 261 51 107
262 262 51 108
263 263 52 53
264 264 52 54
265 265 52 55
266 266 52 56
267 267 52 104
268 268 52 108
269 269 53 54
270 270 53 55
271 271 53 56
272 272 53 57
273 273 53 199
274 274 53 202
275 275 53 203
276 276 54 55
277 277 54 56
278 278 54 57
279 279 54 58
280 280 54 104
281 281 54 202
282 282 54 203
283 283 54 206
284 284 55 56
285 285 55 57
286 286 55 58
287 287 55 59
288 288 55 101
289 289 55 104
290 290 55 105
291 291 56 57
292 292 56 58
293 293 56 59
294 294 56 60
295 295 56 152
296 296 57 58
297 297 57 59
298 298 57 60
299 299 57 61
300 300 57 154
301 301 57 203
302 302 57 206
303 303 57 207
304 304 58 59
305 305 58 60
306 306 58 61
307 307 58 62
308 308 58 97
309 309 58 100
310 310 58 101
311 311 58 206
312 312 59 60
313 313 59 61
314 314 59 62
315 315 59 63
316 316 59 101
317 317 59 152
318 318 60 61
319 319 60 62
320 320 60 63
321 321 60 64
322 322 60 152
323 323 60 154
324 324 61 62
325 325 61 63
326 326 61 64
327 327 61 65
328 328 61 206
329 329 61 207
330 330 61 210
331 331 62 63
332 332 62 64
333 333 62 65
334 334 62 66
335 335 62 97
336 336 62 210
337 337 63 64
338 338 63 65
339 339 63 66
340 340 63 67
341 341 64 65
342 342 64 66
343 343 64 67
344 344 64 68
345 345 64 214
346 346 64 242
347 347 65 66
348 348 65 67
349 349 65 68
350 350 65 69
351 351 65 213
352 352 65 214
353 353 66 67
354 354 66 68
355 355 66 69
356 356 66 70
357 357 66 89
358 358 67 68
359 359 67 69
360 360 67 70
361 361 67 71
362 362 68 69
363 363 68 70
364 364 68 71
365 365 68 72
366 366 68 238
367 367 68 242
368 368 69 70
369 369 69 71
370 370 69 72
371 371 69 73
372 372 69 85
373 373 69 86
374 374 69 89
375 375 70 71
376 376 70 72
377 377 70 73
378 378 70 74
379 379 71 72
380 380 71 73
381 381 71 74
382 382 71 75
383 383 72 73
384 384 72 74
385 385 72 75
386 386 72 76
387 387 72 85
388 388 72 234
389 389 73 74
390 390 73 75
391 391 73 76
392 392 73 77
393 393 73 81
394 394 73 82
395 395 73 85
396 396 74 75
397 397 74 76
398 398 74 77
399 399 75 76
400 400 75 77
401 401 76 77
402 402 76 78
403 403 76 79
404 404 76 81
405 405 76 82
406 406 77 78
407 407 77 79
408 408 78 79
409 409 78 80
410 410 78 81
411 411 78 82
412 412 79 80
413 413 79 81
414 414 79 82
415 415 79 83
416 416 80 81
417 417 80 82
418 418 80 83
419 419 80 84
420 420 81 82
421 421 81 83
422 422 81 84
423 423 81 85
424 424 82 83
425 425 82 84
426 426 82 85
427 427 82 86
428 428 83 84
429 429 83 85
430 430 83 86
431 431 83 87
432 432 84 85
433 433 84 86
434 434 84 87
435 435 84 88
436 436 85 86
437 437 85 87
438 438 85 88
439 439 85 89
440 440 86 87
441 441 86 88
442 442 86 89
443 443 86 90
444 444 87 88
445 445 87 89
446 446 87 90
447 447 87 91
448 448 88 89
449 449 88 90
450 450 88 91
451 451 88 92
452 452 88 93
453 453 88 94
454 454 89 90
455 455 89 91
456 456 89 92
457 457 89 93
458 458 89 94
459 459 89 217
460 460 90 91
461 461 90 92
462 462 90 93
463 463 90 94
464 464 90 95
465 465 91 92
466 466 91 93
467 467 91 94
468 468 91 95
469 469 92 93
470 470 92 94
471 471 92 95
472 472 92 96
473 473 93 94
474 474 93 95
475 475 93 96
476 476 93 97
477 477 93 213
478 478 93 217
479 479 94 95
480 480 94 96
481 481 94 97
482 482 94 98
483 483 95 96
484 484 95 97
485 485 95 98
486 486 95 99
487 487 96 97
488 488 96 98
489 489 96 99
490 490 96 100
491 491 97 98
492 492 97 99
493 493 97 100
494 494 97 101
495 495 98 99
496 496 98 100
497 497 98 101
498 498 98 102
499 499 99 100
500 500 99 101
501 501 99 102
502 502 99 103
503 503 100 101
504 504 100 102
505 505 100 103
506 506 100 104
507 507 101 102
508 508 101 103
509 509 101 104
510 510 101 105
511 511 102 103
512 512 102 104
513 513 102 105
514 514 102 106
515 515 103 104
516 516 103 105
517 517 103 106
518 518 103 107
519 519 104 105
520 520 104 106
521 521 104 107
522 522 104 108
523 523 105 106
524 524 105 107
525 525 105 108
526 526 105 109
527 527 106 107
528 528 106 108
529 529 106 109
530 530 106 110
531 531 106 111
532 532 106 112
533 533 106 115
534 534 107 108
535 535 107 109
536 536 107 110
537 537 107 111
538 538 107 112
539 539 107 115
540 540 108 109
541 541 108 110
542 542 108 111
543 543 108 112
544 544 109 110
545 545 109 111
546 546 110 111
547 547 110 112
548 548 110 114
549 549 110 115
550 550 110 140
551 551 110 141
552 552 110 142
553 553 111 112
554 554 111 113
555 555 111 114
556 556 111 115
557 557 112 113
558 558 112 114
559 559 112 115
560 560 112 116
561 561 113 114
562 562 113 115
563 563 113 116
564 564 113 117
565 565 114 115
566 566 114 116
567 567 114 117
568 568 114 118
569 569 114 140
570 570 114 141
571 571 115 116
572 572 115 117
573 573 115 118
574 574 115 119
575 575 115 140
576 576 116 117
577 577 116 118
578 578 116 119
579 579 116 120
580 580 117 118
581 581 117 119
582 582 117 120
583 583 117 121
584 584 117 140
585 585 118 119
586 586 118 120
587 587 118 121
588 588 118 122
589 589 118 138
590 590 118 139
591 591 118 140
592 592 119 120
593 593 119 121
594 594 119 122
595 595 119 123
596 596 120 121
597 597 120 122
598 598 120 123
599 599 120 124
600 600 121 122
601 601 121 123
602 602 121 124
603 603 121 125
604 604 121 138
605 605 121 139
606 606 122 123
607 607 122 124
608 608 122 125
609 609 122 126
610 610 122 137
611 611 122 138
612 612 122 139
613 613 123 124
614 614 123 125
615 615 123 126
616 616 123 127
617 617 124 125
618 618 124 126
619 619 124 127
620 620 124 128
621 621 125 126
622 622 125 127
623 623 125 128
624 624 125 129
625 625 125 133
626 626 125 134
627 627 125 137
628 628 125 138
629 629 126 127
630 630 126 128
631 631 126 129
632 632 126 130
633 633 126 133
634 634 127 128
635 635 127 129
636 636 128 129
637 637 128 130
638 638 128 132
639 639 128 133
640 640 129 130
641 641 129 131
642 642 129 132
643 643 129 133
644 644 130 131
645 645 130 132
646 646 130 133
647 647 131 132
648 648 131 133
649 649 132 133
650 650 132 134
651 651 133 134
652 652 133 135
653 653 134 135
654 654 134 136
655 655 134 137
656 656 135 136
657 657 135 137
658 658 136 137
659 659 136 138
660 660 137 138
661 661 137 139
662 662 138 139
663 663 138 140
664 664 139 140
665 665 139 141
666 666 140 141
667 667 140 142
668 668 141 142
669 669 141 143
670 670 141 144
671 671 142 143
672 672 142 144
673 673 143 144
674 674 143 145
675 675 144 145
676 676 144 146
677 677 145 146
678 678 145 147
679 679 146 147
680 680 146 148
681 681 147 148
682 682 147 149
683 683 148 149
684 684 150 151
685 685 150 152
686 686 151 152
687 687 151 153
688 688 152 153
689 689 152 154
690 690 153 154
691 691 153 155
692 692 153 156
693 693 153 162
694 694 154 155
695 695 154 156
696 696 154 157
697 697 154 161
698 698 154 162
699 699 155 156
700 700 155 157
701 701 155 158
702 702 155 159
703 703 155 160
704 704 155 161
705 705 155 162
706 706 156 157
707 707 156 158
708 708 156 159
709 709 156 160
710 710 156 161
711 711 157 158
712 712 157 159
713 713 157 160
714 714 158 159
715 715 158 160
716 716 159 160
717 717 159 161
718 718 160 161
719 719 160 162
720 720 160 164
721 721 161 162
722 722 161 163
723 723 161 164
724 724 161 165
725 725 162 163
726 726 162 164
727 727 162 165
728 728 162 166
729 729 163 164
730 730 163 165
731 731 163 166
732 732 163 167
733 733 164 165
734 734 164 166
735 735 164 167
736 736 164 168
737 737 164 272
738 738 165 166
739 739 165 167
740 740 165 168
741 741 165 248
742 742 166 167
743 743 166 168
744 744 166 169
745 745 166 245
746 746 166 248
747 747 167 168
748 748 167 169
749 749 168 169
750 750 168 170
751 751 168 172
752 752 169 170
753 753 169 171
754 754 169 172
755 755 169 173
756 756 170 171
757 757 170 172
758 758 170 173
759 759 170 244
760 760 171 172
761 761 171 173
762 762 171 174
763 763 172 173
764 764 172 174
765 765 173 174
766 766 173 175
767 767 173 247
768 768 173 248
769 769 173 251
770 770 174 175
771 771 174 176
772 772 174 178
773 773 174 179
774 774 174 247
775 775 174 251
776 776 175 176
777 777 175 177
778 778 175 178
779 779 175 179
780 780 175 247
781 781 176 177
782 782 176 178
783 783 176 179
784 784 176 180
785 785 176 243
786 786 176 246
787 787 176 247
788 788 176 250
789 789 177 178
790 790 177 179
791 791 177 180
792 792 177 181
793 793 178 179
794 794 178 180
795 795 178 181
796 796 178 182
797 797 179 180
798 798 179 181
799 799 179 182
800 800 179 183
801 801 179 247
802 802 179 250
803 803 179 251
804 804 179 254
805 805 180 181
806 806 180 182
807 807 180 183
808 808 180 184
809 809 180 208
810 810 181 182
811 811 181 183
812 812 181 184
813 813 181 185
814 814 182 183
815 815 182 184
816 816 182 185
817 817 182 186
818 818 182 187
819 819 182 254
820 820 183 184
821 821 183 185
822 822 183 186
823 823 183 187
824 824 183 188
825 825 183 191
826 826 183 204
827 827 183 254
828 828 184 185
829 829 184 186
830 830 184 187
831 831 184 188
832 832 185 186
833 833 185 187
834 834 185 188
835 835 186 187
836 836 186 188
837 837 186 189
838 838 187 188
839 839 187 189
840 840 187 190
841 841 187 191
842 842 188 189
843 843 188 190
844 844 188 191
845 845 188 192
846 846 189 190
847 847 189 191
848 848 189 192
849 849 189 193
850 850 190 191
851 851 190 192
852 852 190 193
853 853 190 197
854 854 190 201
855 855 191 192
856 856 191 193
857 857 191 201
858 858 191 202
859 859 191 205
860 860 192 193
861 861 192 194
862 862 193 194
863 863 193 195
864 864 193 196
865 865 193 197
866 866 194 195
867 867 194 196
868 868 195 196
869 869 195 197
870 870 196 197
871 871 196 198
872 872 196 202
873 873 197 198
874 874 197 199
875 875 197 201
876 876 197 202
877 877 198 199
878 878 198 200
879 879 198 201
880 880 198 202
881 881 199 200
882 882 199 201
883 883 199 202
884 884 199 203
885 885 200 201
886 886 200 202
887 887 200 203
888 888 200 204
889 889 200 253
890 890 200 254
891 891 200 256
892 892 200 257
893 893 201 202
894 894 201 203
895 895 201 204
896 896 201 205
897 897 201 253
898 898 201 257
899 899 202 203
900 900 202 204
901 901 202 205
902 902 202 206
903 903 203 204
904 904 203 205
905 905 203 206
906 906 203 207
907 907 203 253
908 908 204 205
909 909 204 206
910 910 204 207
911 911 204 208
912 912 204 250
913 913 204 253
914 914 204 254
915 915 205 206
916 916 205 207
917 917 205 208
918 918 205 209
919 919 206 207
920 920 206 208
921 921 206 209
922 922 206 210
923 923 207 208
924 924 207 209
925 925 207 210
926 926 207 211
927 927 207 246
928 928 207 249
929 929 207 250
930 930 208 209
931 931 208 210
932 932 208 211
933 933 208 212
934 934 209 210
935 935 209 211
936 936 209 212
937 937 209 213
938 938 210 211
939 939 210 212
940 940 210 213
941 941 210 214
942 942 211 212
943 943 211 213
944 944 211 214
945 945 211 215
946 946 211 246
947 947 212 213
948 948 212 214
949 949 212 215
950 950 212 216
951 951 213 214
952 952 213 215
953 953 213 216
954 954 213 217
955 955 214 215
956 956 214 216
957 957 214 217
958 958 214 218
959 959 214 238
960 960 215 216
961 961 215 217
962 962 215 218
963 963 215 219
964 964 215 238
965 965 216 217
966 966 216 218
967 967 216 219
968 968 216 220
969 969 217 218
970 970 217 219
971 971 217 220
972 972 217 221
973 973 218 219
974 974 218 220
975 975 218 221
976 976 218 222
977 977 218 234
978 978 218 235
979 979 218 238
980 980 219 220
981 981 219 221
982 982 219 222
983 983 219 223
984 984 219 235
985 985 220 221
986 986 220 222
987 987 220 223
988 988 220 224
989 989 221 222
990 990 221 223
991 991 221 224
992 992 221 225
993 993 221 231
994 994 221 234
995 995 222 223
996 996 222 224
997 997 222 225
998 998 222 226
999 999 222 230
1000 1000 222 231
1001 1001 222 234
1002 1002 222 235
1003 1003 223 224
1004 1004 223 225
1005 1005 223 226
1006 1006 223 231
1007 1007 224 225
1008 1008 224 226
1009 1009 225 226
1010 1010 225 227
1011 1011 225 228
1012 1012 225 230
1013 1013 225 231
1014 1014 226 227
1015 1015 226 228
1016 1016 227 228
1017 1017 227 229
1018 1018 227 230
1019 1019 227 231
1020 1020 228 229
1021 1021 228 230
1022 1022 228 231
1023 1023 228 232
1024 1024 229 230
1025 1025 229 231
1026 1026 229 232
1027 1027 229 233
1028 1028 230 231
1029 1029 230 232
1030 1030 230 233
1031 1031 230 234
1032 1032 231 232
1033 1033 231 233
1034 1034 231 234
1035 1035 231 235
1036 1036 232 233
1037 1037 232 234
1038 1038 232 235
1039 1039 232 236
1040 1040 233 234
1041 1041 233 235
1042 1042 233 236
1043 1043 233 237
1044 1044 234 235
1045 1045 234 236
1046 1046 234 237
1047 1047 234 238
1048 1048 235 236
1049 1049 235 237
1050 1050 235 238
1051 1051 235 239
1052 1052 236 237
1053 1053 236 238
1054 1054 236 239
1055 1055 236 240
1056 1056 236 241
1057 1057 237 238
1058 1058 237 239
1059 1059 237 240
1060 1060 237 241
1061 1061 237 242
1062 1062 237 243
1063 1063 238 239
1064 1064 238 240
1065 1065 238 241
1066 1066 238 242
1067 1067 238 243
1068 1068 239 240
1069 1069 239 241
1070 1070 239 242
1071 1071 239 243
1072 1072 239 244
1073 1073 240 241
1074 1074 240 242
1075 1075 240 243
1076 1076 240 244
1077 1077 241 242
1078 1078 241 243
1079 1079 241 244
1080 1080 241 245
1081 1081 242 243
1082 1082 242 244
1083 1083 242 245
1084 1084 242 246
1085 1085 243 244
1086 1086 243 245
1087 1087 243 246
1088 1088 243 247
1089 1089 244 245
1090 1090 244 246
1091 1091 244 247
1092 1092 244 248
1093 1093 245 246
1094 1094 245 247
1095 1095 245 248
1096 1096 245 249
1097 1097 246 247
1098 1098 246 248
1099 1099 246 249
1100 1100 246 250
1101 1101 246 251
1102 1102 247 248
1103 1103 247 249
1104 1104 247 250
1105 1105 247 251
1106 1106 248 249
1107 1107 248 250
1108 1108 248 251
1109 1109 248 252
1110 1110 249 250
1111 1111 249 251
1112 1112 249 252
1113 1113 249 253
1114 1114 250 251
1115 1115 250 252
1116 1116 250 253
1117 1117 250 254
1118 1118 251 252
1119 1119 251 253
1120 1120 251 254
1121 1121 251 255
1122 1122 252 253
1123 1123 252 254
1124 1124 252 255
1125 1125 252 256
1126 1126 253 254
1127 1127 253 255
1128 1128 253 256
1129 1129 253 257
1130 1130 254 255
1131 1131 254 256
1132 1132 254 257
1133 1133 254 258
1134 1134 255 256
1135 1135 255 257
1136 1136 255 258
1137 1137 255 259
1138 1138 255 260
1139 1139 255 261
1140 1140 255 264
1141 1141 256 257
1142 1142 256 258
1143 1143 256 259
1144 1144 256 260
1145 1145 256 261
1146 1146 256 262
1147 1147 256 263
1148 1148 256 264
1149 1149 257 258
1150 1150 257 259
1151 1151 257 260
1152 1152 257 261
1153 1153 258 259
1154 1154 258 260
1155 1155 258 292
1156 1156 258 293
1157 1157 259 260
1158 1158 259 261
1159 1159 259 263
1160 1160 259 264
1161 1161 259 290
1162 1162 259 291
1163 1163 259 292
1164 1164 259 293
1165 1165 260 261
1166 1166 260 262
1167 1167 260 263
1168 1168 260 264
1169 1169 260 293
1170 1170 261 262
1171 1171 261 263
1172 1172 261 264
1173 1173 261 265
1174 1174 262 263
1175 1175 262 264
1176 1176 262 265
1177 1177 262 266
1178 1178 263 264
1179 1179 263 265
1180 1180 263 266
1181 1181 263 267
1182 1182 263 290
1183 1183 264 265
1184 1184 264 266
1185 1185 264 267
1186 1186 264 268
1187 1187 265 266
1188 1188 265 267
1189 1189 265 268
1190 1190 265 269
1191 1191 266 267
1192 1192 266 268
1193 1193 266 269
1194 1194 266 270
1195 1195 267 268
1196 1196 267 269
1197 1197 267 270
1198 1198 267 271
1199 1199 267 287
1200 1200 267 289
1201 1201 267 290
1202 1202 268 269
1203 1203 268 270
1204 1204 268 271
1205 1205 268 272
1206 1206 269 270
1207 1207 269 271
1208 1208 269 272
1209 1209 269 273
1210 1210 270 271
1211 1211 270 272
1212 1212 270 273
1213 1213 270 274
1214 1214 270 287
1215 1215 271 272
1216 1216 271 273
1217 1217 271 274
1218 1218 271 275
1219 1219 271 286
1220 1220 271 287
1221 1221 272 273
1222 1222 272 274
1223 1223 272 275
1224 1224 272 276
1225 1225 273 274
1226 1226 273 275
1227 1227 273 276
1228 1228 273 277
1229 1229 274 275
1230 1230 274 276
1231 1231 274 277
1232 1232 274 278
1233 1233 274 282
1234 1234 274 286
1235 1235 275 276
1236 1236 275 277
1237 1237 275 278
1238 1238 275 279
1239 1239 276 277
1240 1240 276 278
1241 1241 277 278
1242 1242 277 279
1243 1243 277 281
1244 1244 277 282
1245 1245 278 279
1246 1246 278 280
1247 1247 278 281
1248 1248 278 282
1249 1249 279 280
1250 1250 279 281
1251 1251 279 282
1252 1252 280 281
1253 1253 280 282
1254 1254 280 283
1255 1255 281 282
1256 1256 281 283
1257 1257 282 283
1258 1258 282 284
1259 1259 283 284
1260 1260 283 285
1261 1261 283 286
1262 1262 284 285
1263 1263 284 286
1264 1264 285 286
1265 1265 285 287
1266 1266 286 287
1267 1267 286 288
1268 1268 287 288
1269 1269 287 289
1270 1270 288 289
1271 1271 288 290
1272 1272 289 290
1273 1273 289 291
1274 1274 290 291
1275 1275 290 292
1276 1276 291 292
1277 1277 291 293
1278 1278 292 293
1279 1279 292 294
1280 1280 292 296
1281 1281 293 294
1282 1282 293 295
1283 1283 293 296
1284 1284 294 295
1285 1285 294 296
1286 1286 295 296
1287 1287 295 297
1288 1288 295 298
1289 1289 296 297
1290 1290 296 298
1291 1291 297 298

