LAMMPS (10 Dec 2025)
OMP_NUM_THREADS environment is not set. Defaulting to 1 thread.
  using 1 OpenMP thread(s) per MPI task
# Elastic network model of HBV dimers

#Set values of some variables
variable myseed index 12345
variable nsteps index 100000000
variable thermo_freq index 10000
variable config_freq index 10000

#Some other settings
units real
atom_style bond
bond_style harmonic

#Read in initial configuration and other data from files
read_data dimer_data.lammps
Reading data file ...
  orthogonal box = (-127.5625 -127.5625 -127.5625) to (127.5625 127.5625 127.5625)
  1 by 1 by 1 MPI processor grid
  reading atoms ...
  298 atoms
  scanning bonds ...
  9 = max bonds/atom
  orthogonal box = (-127.5625 -127.5625 -127.5625) to (127.5625 127.5625 127.5625)
  1 by 1 by 1 MPI processor grid
  reading bonds ...
  1291 bonds
Finding 1-2 1-3 1-4 neighbors ...
  special bond factors lj:    0        0        0       
  special bond factors coul:  0        0        0       
    14 = max # of 1-2 neighbors
   137 = max # of 1-3 neighbors
  1491 = max # of 1-4 neighbors
   127 = max # of special neighbors
  special bonds CPU = 0.002 seconds
  read_data CPU = 0.005 seconds
include dimer_data_harmonic_bond_coeffs.lammps
#ENM harmonic bond coefficients
#format: bond_coeff ${bond_type} ${K}(kcal/mol/Ang^2) ${r0}(Ang)

bond_coeff 1 10.0000 3.7834
bond_coeff 2 10.0000 7.0057
bond_coeff 3 10.0000 6.4765
bond_coeff 4 10.0000 7.7810
bond_coeff 5 10.0000 3.9076
bond_coeff 6 10.0000 6.4126
bond_coeff 7 10.0000 3.8314
bond_coeff 8 10.0000 5.9925
bond_coeff 9 10.0000 6.6989
bond_coeff 10 10.0000 6.8788
bond_coeff 11 10.0000 6.3735
bond_coeff 12 10.0000 7.7276
bond_coeff 13 10.0000 7.2589
bond_coeff 14 10.0000 3.9171
bond_coeff 15 10.0000 6.0794
bond_coeff 16 10.0000 5.6719
bond_coeff 17 10.0000 7.8779
bond_coeff 18 10.0000 7.7462
bond_coeff 19 10.0000 7.7749
bond_coeff 20 10.0000 7.1657
bond_coeff 21 10.0000 3.7879
bond_coeff 22 10.0000 5.9578
bond_coeff 23 10.0000 7.8170
bond_coeff 24 10.0000 7.9266
bond_coeff 25 10.0000 7.3107
bond_coeff 26 10.0000 7.6042
bond_coeff 27 10.0000 7.8451
bond_coeff 28 10.0000 7.9552
bond_coeff 29 10.0000 7.5084
bond_coeff 30 10.0000 3.8408
bond_coeff 31 10.0000 5.9724
bond_coeff 32 10.0000 5.7357
bond_coeff 33 10.0000 6.4215
bond_coeff 34 10.0000 4.9808
bond_coeff 35 10.0000 6.0237
bond_coeff 36 10.0000 6.8385
bond_coeff 37 10.0000 7.0773
bond_coeff 38 10.0000 3.9454
bond_coeff 39 10.0000 5.3618
bond_coeff 40 10.0000 4.7434
bond_coeff 41 10.0000 4.7046
bond_coeff 42 10.0000 5.4187
bond_coeff 43 10.0000 7.8987
bond_coeff 44 10.0000 6.6711
bond_coeff 45 10.0000 3.7859
bond_coeff 46 10.0000 5.4293
bond_coeff 47 10.0000 7.4717
bond_coeff 48 10.0000 6.4916
bond_coeff 49 10.0000 5.0513
bond_coeff 50 10.0000 5.5906
bond_coeff 51 10.0000 6.3510
bond_coeff 52 10.0000 3.9091
bond_coeff 53 10.0000 6.2110
bond_coeff 54 10.0000 7.8895
bond_coeff 55 10.0000 7.7200
bond_coeff 56 10.0000 7.9194
bond_coeff 57 10.0000 7.7452
bond_coeff 58 10.0000 7.8546
bond_coeff 59 10.0000 3.7705
bond_coeff 60 10.0000 6.9262
bond_coeff 61 10.0000 7.5573
bond_coeff 62 10.0000 7.8413
bond_coeff 63 10.0000 7.5341
bond_coeff 64 10.0000 3.8154
bond_coeff 65 10.0000 6.7374
bond_coeff 66 10.0000 6.2152
bond_coeff 67 10.0000 7.2274
bond_coeff 68 10.0000 7.3793
bond_coeff 69 10.0000 3.8841
bond_coeff 70 10.0000 5.1613
bond_coeff 71 10.0000 5.0180
bond_coeff 72 10.0000 6.6563
bond_coeff 73 10.0000 3.8584
bond_coeff 74 10.0000 5.5223
bond_coeff 75 10.0000 5.3119
bond_coeff 76 10.0000 6.1490
bond_coeff 77 10.0000 3.8217
bond_coeff 78 10.0000 5.4413
bond_coeff 79 10.0000 4.7969
bond_coeff 80 10.0000 5.9578
bond_coeff 81 10.0000 3.8614
bond_coeff 82 10.0000 5.4797
bond_coeff 83 10.0000 5.1289
bond_coeff 84 10.0000 7.3134
bond_coeff 85 10.0000 7.2321
bond_coeff 86 10.0000 7.8273
bond_coeff 87 10.0000 3.9102
bond_coeff 88 10.0000 5.3916
bond_coeff 89 10.0000 5.8114
bond_coeff 90 10.0000 7.2642
bond_coeff 91 10.0000 7.7134
bond_coeff 92 10.0000 3.7749
bond_coeff 93 10.0000 5.2948
bond_coeff 94 10.0000 7.1707
bond_coeff 95 10.0000 7.3696
bond_coeff 96 10.0000 3.7638
bond_coeff 97 10.0000 6.8106
bond_coeff 98 10.0000 7.9213
bond_coeff 99 10.0000 7.9130
bond_coeff 100 10.0000 6.4551
bond_coeff 101 10.0000 3.9363
bond_coeff 102 10.0000 6.5521
bond_coeff 103 10.0000 7.4045
bond_coeff 104 10.0000 7.0658
bond_coeff 105 10.0000 7.4010
bond_coeff 106 10.0000 5.7212
bond_coeff 107 10.0000 3.9449
bond_coeff 108 10.0000 5.4914
bond_coeff 109 10.0000 5.6776
bond_coeff 110 10.0000 3.6913
bond_coeff 111 10.0000 5.7306
bond_coeff 112 10.0000 7.1600
bond_coeff 113 10.0000 7.4264
bond_coeff 114 10.0000 3.8895
bond_coeff 115 10.0000 5.7800
bond_coeff 116 10.0000 3.8694
bond_coeff 117 10.0000 6.8291
bond_coeff 118 10.0000 3.8284
bond_coeff 119 10.0000 6.6208
bond_coeff 120 10.0000 6.4421
bond_coeff 121 10.0000 6.7801
bond_coeff 122 10.0000 6.7290
bond_coeff 123 10.0000 3.8346
bond_coeff 124 10.0000 6.9826
bond_coeff 125 10.0000 5.5374
bond_coeff 126 10.0000 5.7932
bond_coeff 127 10.0000 6.9748
bond_coeff 128 10.0000 7.2828
bond_coeff 129 10.0000 3.7555
bond_coeff 130 10.0000 5.3124
bond_coeff 131 10.0000 4.6382
bond_coeff 132 10.0000 5.9270
bond_coeff 133 10.0000 6.8642
bond_coeff 134 10.0000 3.8370
bond_coeff 135 10.0000 5.5891
bond_coeff 136 10.0000 5.9005
bond_coeff 137 10.0000 6.5790
bond_coeff 138 10.0000 6.9530
bond_coeff 139 10.0000 7.5647
bond_coeff 140 10.0000 6.6100
bond_coeff 141 10.0000 3.8999
bond_coeff 142 10.0000 5.8616
bond_coeff 143 10.0000 5.2512
bond_coeff 144 10.0000 6.1230
bond_coeff 145 10.0000 3.7585
bond_coeff 146 10.0000 5.3035
bond_coeff 147 10.0000 4.8897
bond_coeff 148 10.0000 5.9258
bond_coeff 149 10.0000 3.8556
bond_coeff 150 10.0000 5.4055
bond_coeff 151 10.0000 5.0277
bond_coeff 152 10.0000 5.9080
bond_coeff 153 10.0000 7.4444
bond_coeff 154 10.0000 7.2370
bond_coeff 155 10.0000 6.7835
bond_coeff 156 10.0000 3.8868
bond_coeff 157 10.0000 5.6324
bond_coeff 158 10.0000 5.1714
bond_coeff 159 10.0000 6.2530
bond_coeff 160 10.0000 3.7947
bond_coeff 161 10.0000 5.4997
bond_coeff 162 10.0000 5.1441
bond_coeff 163 10.0000 6.1352
bond_coeff 164 10.0000 3.9127
bond_coeff 165 10.0000 5.3942
bond_coeff 166 10.0000 5.0507
bond_coeff 167 10.0000 6.0100
bond_coeff 168 10.0000 7.5698
bond_coeff 169 10.0000 3.8270
bond_coeff 170 10.0000 5.7071
bond_coeff 171 10.0000 5.7871
bond_coeff 172 10.0000 5.0574
bond_coeff 173 10.0000 6.8044
bond_coeff 174 10.0000 7.8090
bond_coeff 175 10.0000 7.6030
bond_coeff 176 10.0000 3.8841
bond_coeff 177 10.0000 5.9474
bond_coeff 178 10.0000 5.5875
bond_coeff 179 10.0000 5.0514
bond_coeff 180 10.0000 7.6393
bond_coeff 181 10.0000 7.8640
bond_coeff 182 10.0000 3.8009
bond_coeff 183 10.0000 5.9808
bond_coeff 184 10.0000 6.3447
bond_coeff 185 10.0000 3.8403
bond_coeff 186 10.0000 6.1788
bond_coeff 187 10.0000 3.8412
bond_coeff 188 10.0000 6.0257
bond_coeff 189 10.0000 5.3867
bond_coeff 190 10.0000 6.6317
bond_coeff 191 10.0000 3.7872
bond_coeff 192 10.0000 5.3472
bond_coeff 193 10.0000 5.4098
bond_coeff 194 10.0000 6.8904
bond_coeff 195 10.0000 7.2371
bond_coeff 196 10.0000 3.7969
bond_coeff 197 10.0000 5.3050
bond_coeff 198 10.0000 5.0063
bond_coeff 199 10.0000 5.9423
bond_coeff 200 10.0000 3.8579
bond_coeff 201 10.0000 5.4878
bond_coeff 202 10.0000 5.1446
bond_coeff 203 10.0000 6.8071
bond_coeff 204 10.0000 3.9099
bond_coeff 205 10.0000 5.7886
bond_coeff 206 10.0000 6.1964
bond_coeff 207 10.0000 6.4388
bond_coeff 208 10.0000 7.3086
bond_coeff 209 10.0000 6.3749
bond_coeff 210 10.0000 3.8304
bond_coeff 211 10.0000 6.7236
bond_coeff 212 10.0000 6.0192
bond_coeff 213 10.0000 7.7708
bond_coeff 214 10.0000 6.5852
bond_coeff 215 10.0000 7.7294
bond_coeff 216 10.0000 7.9900
bond_coeff 217 10.0000 3.8430
bond_coeff 218 10.0000 5.1559
bond_coeff 219 10.0000 7.1796
bond_coeff 220 10.0000 7.1462
bond_coeff 221 10.0000 5.9101
bond_coeff 222 10.0000 3.9513
bond_coeff 223 10.0000 6.9261
bond_coeff 224 10.0000 5.2324
bond_coeff 225 10.0000 3.9784
bond_coeff 226 10.0000 7.1344
bond_coeff 227 10.0000 7.2175
bond_coeff 228 10.0000 3.7931
bond_coeff 229 10.0000 5.7218
bond_coeff 230 10.0000 5.0021
bond_coeff 231 10.0000 7.5945
bond_coeff 232 10.0000 3.8395
bond_coeff 233 10.0000 6.6283
bond_coeff 234 10.0000 7.6307
bond_coeff 235 10.0000 6.6094
bond_coeff 236 10.0000 5.7319
bond_coeff 237 10.0000 5.6486
bond_coeff 238 10.0000 7.3941
bond_coeff 239 10.0000 7.0674
bond_coeff 240 10.0000 3.9048
bond_coeff 241 10.0000 6.7589
bond_coeff 242 10.0000 6.2919
bond_coeff 243 10.0000 7.3262
bond_coeff 244 10.0000 3.9114
bond_coeff 245 10.0000 5.4497
bond_coeff 246 10.0000 5.5905
bond_coeff 247 10.0000 7.1673
bond_coeff 248 10.0000 3.8006
bond_coeff 249 10.0000 5.5005
bond_coeff 250 10.0000 5.5314
bond_coeff 251 10.0000 6.3138
bond_coeff 252 10.0000 7.2076
bond_coeff 253 10.0000 6.8400
bond_coeff 254 10.0000 7.7660
bond_coeff 255 10.0000 3.7916
bond_coeff 256 10.0000 5.5738
bond_coeff 257 10.0000 5.1785
bond_coeff 258 10.0000 5.9599
bond_coeff 259 10.0000 5.6536
bond_coeff 260 10.0000 7.8858
bond_coeff 261 10.0000 7.4006
bond_coeff 262 10.0000 6.0438
bond_coeff 263 10.0000 3.7978
bond_coeff 264 10.0000 5.5445
bond_coeff 265 10.0000 5.1719
bond_coeff 266 10.0000 6.4563
bond_coeff 267 10.0000 7.8264
bond_coeff 268 10.0000 7.4611
bond_coeff 269 10.0000 3.8169
bond_coeff 270 10.0000 5.3956
bond_coeff 271 10.0000 5.3235
bond_coeff 272 10.0000 6.3536
bond_coeff 273 10.0000 6.5102
bond_coeff 274 10.0000 7.6815
bond_coeff 275 10.0000 7.6178
bond_coeff 276 10.0000 3.7799
bond_coeff 277 10.0000 5.4962
bond_coeff 278 10.0000 5.1534
bond_coeff 279 10.0000 6.1174
bond_coeff 280 10.0000 7.3071
bond_coeff 281 10.0000 6.8316
bond_coeff 282 10.0000 7.0758
bond_coeff 283 10.0000 7.1264
bond_coeff 284 10.0000 3.7881
bond_coeff 285 10.0000 5.4747
bond_coeff 286 10.0000 5.1973
bond_coeff 287 10.0000 6.6358
bond_coeff 288 10.0000 6.1155
bond_coeff 289 10.0000 6.1125
bond_coeff 290 10.0000 7.5716
bond_coeff 291 10.0000 3.7791
bond_coeff 292 10.0000 5.4856
bond_coeff 293 10.0000 5.5559
bond_coeff 294 10.0000 6.5343
bond_coeff 295 10.0000 7.0072
bond_coeff 296 10.0000 3.8380
bond_coeff 297 10.0000 5.5683
bond_coeff 298 10.0000 5.0001
bond_coeff 299 10.0000 6.1395
bond_coeff 300 10.0000 7.5956
bond_coeff 301 10.0000 6.7600
bond_coeff 302 10.0000 6.5116
bond_coeff 303 10.0000 7.5998
bond_coeff 304 10.0000 3.8147
bond_coeff 305 10.0000 5.2447
bond_coeff 306 10.0000 4.9578
bond_coeff 307 10.0000 6.6113
bond_coeff 308 10.0000 7.4887
bond_coeff 309 10.0000 7.3937
bond_coeff 310 10.0000 6.3967
bond_coeff 311 10.0000 7.0987
bond_coeff 312 10.0000 3.7990
bond_coeff 313 10.0000 5.5656
bond_coeff 314 10.0000 5.5607
bond_coeff 315 10.0000 6.2422
bond_coeff 316 10.0000 7.7144
bond_coeff 317 10.0000 7.5595
bond_coeff 318 10.0000 3.8855
bond_coeff 319 10.0000 5.5294
bond_coeff 320 10.0000 4.7199
bond_coeff 321 10.0000 6.6898
bond_coeff 322 10.0000 6.8512
bond_coeff 323 10.0000 7.2883
bond_coeff 324 10.0000 3.8980
bond_coeff 325 10.0000 5.3179
bond_coeff 326 10.0000 5.7842
bond_coeff 327 10.0000 6.5083
bond_coeff 328 10.0000 7.6809
bond_coeff 329 10.0000 6.9517
bond_coeff 330 10.0000 5.0013
bond_coeff 331 10.0000 3.7908
bond_coeff 332 10.0000 5.5386
bond_coeff 333 10.0000 4.6129
bond_coeff 334 10.0000 5.8183
bond_coeff 335 10.0000 7.4468
bond_coeff 336 10.0000 7.6562
bond_coeff 337 10.0000 3.7706
bond_coeff 338 10.0000 5.2682
bond_coeff 339 10.0000 5.4154
bond_coeff 340 10.0000 6.0373
bond_coeff 341 10.0000 3.8666
bond_coeff 342 10.0000 5.7155
bond_coeff 343 10.0000 5.0113
bond_coeff 344 10.0000 6.3758
bond_coeff 345 10.0000 7.9582
bond_coeff 346 10.0000 6.6717
bond_coeff 347 10.0000 3.7465
bond_coeff 348 10.0000 5.3870
bond_coeff 349 10.0000 5.2586
bond_coeff 350 10.0000 6.1373
bond_coeff 351 10.0000 7.9284
bond_coeff 352 10.0000 6.1738
bond_coeff 353 10.0000 3.8457
bond_coeff 354 10.0000 5.3049
bond_coeff 355 10.0000 4.6485
bond_coeff 356 10.0000 5.8254
bond_coeff 357 10.0000 7.8047
bond_coeff 358 10.0000 3.9781
bond_coeff 359 10.0000 5.6594
bond_coeff 360 10.0000 5.3082
bond_coeff 361 10.0000 6.2835
bond_coeff 362 10.0000 3.8795
bond_coeff 363 10.0000 5.4260
bond_coeff 364 10.0000 4.9711
bond_coeff 365 10.0000 5.8790
bond_coeff 366 10.0000 7.8836
bond_coeff 367 10.0000 7.8042
bond_coeff 368 10.0000 3.8147
bond_coeff 369 10.0000 5.5180
bond_coeff 370 10.0000 5.1665
bond_coeff 371 10.0000 6.2908
bond_coeff 372 10.0000 6.5820
bond_coeff 373 10.0000 6.6916
bond_coeff 374 10.0000 7.2992
bond_coeff 375 10.0000 3.8324
bond_coeff 376 10.0000 5.5453
bond_coeff 377 10.0000 5.3293
bond_coeff 378 10.0000 6.3885
bond_coeff 379 10.0000 3.7873
bond_coeff 380 10.0000 5.4904
bond_coeff 381 10.0000 5.0039
bond_coeff 382 10.0000 6.2775
bond_coeff 383 10.0000 3.9058
bond_coeff 384 10.0000 5.3644
bond_coeff 385 10.0000 5.0698
bond_coeff 386 10.0000 6.2457
bond_coeff 387 10.0000 7.9523
bond_coeff 388 10.0000 7.4237
bond_coeff 389 10.0000 3.8579
bond_coeff 390 10.0000 5.5322
bond_coeff 391 10.0000 5.0568
bond_coeff 392 10.0000 7.7604
bond_coeff 393 10.0000 7.5984
bond_coeff 394 10.0000 4.9575
bond_coeff 395 10.0000 6.9929
bond_coeff 396 10.0000 3.8724
bond_coeff 397 10.0000 5.4823
bond_coeff 398 10.0000 7.3752
bond_coeff 399 10.0000 3.8909
bond_coeff 400 10.0000 6.5558
bond_coeff 401 10.0000 3.8031
bond_coeff 402 10.0000 5.6658
bond_coeff 403 10.0000 7.9483
bond_coeff 404 10.0000 7.4162
bond_coeff 405 10.0000 7.1374
bond_coeff 406 10.0000 3.8401
bond_coeff 407 10.0000 6.6540
bond_coeff 408 10.0000 3.9143
bond_coeff 409 10.0000 5.5124
bond_coeff 410 10.0000 5.5053
bond_coeff 411 10.0000 6.6567
bond_coeff 412 10.0000 3.8251
bond_coeff 413 10.0000 5.6376
bond_coeff 414 10.0000 5.2227
bond_coeff 415 10.0000 6.7472
bond_coeff 416 10.0000 3.8857
bond_coeff 417 10.0000 5.4399
bond_coeff 418 10.0000 5.2921
bond_coeff 419 10.0000 6.5208
bond_coeff 420 10.0000 3.8839
bond_coeff 421 10.0000 5.2294
bond_coeff 422 10.0000 4.6126
bond_coeff 423 10.0000 6.1910
bond_coeff 424 10.0000 3.7667
bond_coeff 425 10.0000 5.2358
bond_coeff 426 10.0000 5.1883
bond_coeff 427 10.0000 6.4633
bond_coeff 428 10.0000 3.7569
bond_coeff 429 10.0000 5.5790
bond_coeff 430 10.0000 5.4868
bond_coeff 431 10.0000 5.9978
bond_coeff 432 10.0000 3.8319
bond_coeff 433 10.0000 5.6899
bond_coeff 434 10.0000 4.9488
bond_coeff 435 10.0000 6.1262
bond_coeff 436 10.0000 3.9000
bond_coeff 437 10.0000 5.3321
bond_coeff 438 10.0000 5.1771
bond_coeff 439 10.0000 6.1030
bond_coeff 440 10.0000 3.8672
bond_coeff 441 10.0000 5.6577
bond_coeff 442 10.0000 4.9661
bond_coeff 443 10.0000 5.9095
bond_coeff 444 10.0000 3.9176
bond_coeff 445 10.0000 5.3585
bond_coeff 446 10.0000 4.9953
bond_coeff 447 10.0000 5.8095
bond_coeff 448 10.0000 3.8016
bond_coeff 449 10.0000 5.5273
bond_coeff 450 10.0000 5.0039
bond_coeff 451 10.0000 5.0910
bond_coeff 452 10.0000 6.4715
bond_coeff 453 10.0000 7.5771
bond_coeff 454 10.0000 3.8227
bond_coeff 455 10.0000 5.5700
bond_coeff 456 10.0000 6.2356
bond_coeff 457 10.0000 5.3148
bond_coeff 458 10.0000 5.2612
bond_coeff 459 10.0000 7.8977
bond_coeff 460 10.0000 3.8845
bond_coeff 461 10.0000 6.7690
bond_coeff 462 10.0000 6.6372
bond_coeff 463 10.0000 4.4256
bond_coeff 464 10.0000 6.6393
bond_coeff 465 10.0000 3.8887
bond_coeff 466 10.0000 5.7010
bond_coeff 467 10.0000 5.0473
bond_coeff 468 10.0000 5.2897
bond_coeff 469 10.0000 3.7640
bond_coeff 470 10.0000 5.9503
bond_coeff 471 10.0000 6.1850
bond_coeff 472 10.0000 7.9075
bond_coeff 473 10.0000 3.9420
bond_coeff 474 10.0000 5.6715
bond_coeff 475 10.0000 6.0002
bond_coeff 476 10.0000 6.9740
bond_coeff 477 10.0000 6.6681
bond_coeff 478 10.0000 7.8464
bond_coeff 479 10.0000 3.7545
bond_coeff 480 10.0000 5.3414
bond_coeff 481 10.0000 4.6725
bond_coeff 482 10.0000 5.9953
bond_coeff 483 10.0000 3.8302
bond_coeff 484 10.0000 5.2756
bond_coeff 485 10.0000 4.9686
bond_coeff 486 10.0000 6.2439
bond_coeff 487 10.0000 3.8465
bond_coeff 488 10.0000 5.4494
bond_coeff 489 10.0000 5.0018
bond_coeff 490 10.0000 6.0597
bond_coeff 491 10.0000 3.8440
bond_coeff 492 10.0000 5.4542
bond_coeff 493 10.0000 5.1487
bond_coeff 494 10.0000 6.2933
bond_coeff 495 10.0000 3.8997
bond_coeff 496 10.0000 5.6745
bond_coeff 497 10.0000 5.6795
bond_coeff 498 10.0000 5.8081
bond_coeff 499 10.0000 3.8541
bond_coeff 500 10.0000 5.8981
bond_coeff 501 10.0000 5.2485
bond_coeff 502 10.0000 5.8211
bond_coeff 503 10.0000 3.9779
bond_coeff 504 10.0000 5.7014
bond_coeff 505 10.0000 5.2305
bond_coeff 506 10.0000 6.3888
bond_coeff 507 10.0000 3.9102
bond_coeff 508 10.0000 5.3620
bond_coeff 509 10.0000 5.0876
bond_coeff 510 10.0000 6.1281
bond_coeff 511 10.0000 3.8251
bond_coeff 512 10.0000 5.5002
bond_coeff 513 10.0000 5.1132
bond_coeff 514 10.0000 6.0542
bond_coeff 515 10.0000 3.7046
bond_coeff 516 10.0000 5.4428
bond_coeff 517 10.0000 5.2296
bond_coeff 518 10.0000 6.0001
bond_coeff 519 10.0000 3.8270
bond_coeff 520 10.0000 5.5665
bond_coeff 521 10.0000 5.1763
bond_coeff 522 10.0000 5.8269
bond_coeff 523 10.0000 3.8230
bond_coeff 524 10.0000 5.5042
bond_coeff 525 10.0000 5.0832
bond_coeff 526 10.0000 5.9338
bond_coeff 527 10.0000 3.7955
bond_coeff 528 10.0000 5.5285
bond_coeff 529 10.0000 5.1904
bond_coeff 530 10.0000 5.9352
bond_coeff 531 10.0000 7.2453
bond_coeff 532 10.0000 7.7856
bond_coeff 533 10.0000 7.0088
bond_coeff 534 10.0000 3.7953
bond_coeff 535 10.0000 5.4584
bond_coeff 536 10.0000 5.3744
bond_coeff 537 10.0000 4.4796
bond_coeff 538 10.0000 4.7873
bond_coeff 539 10.0000 6.6724
bond_coeff 540 10.0000 3.8131
bond_coeff 541 10.0000 5.9057
bond_coeff 542 10.0000 5.7693
bond_coeff 543 10.0000 7.7414
bond_coeff 544 10.0000 3.8625
bond_coeff 545 10.0000 6.2299
bond_coeff 546 10.0000 3.8662
bond_coeff 547 10.0000 6.8332
bond_coeff 548 10.0000 7.2980
bond_coeff 549 10.0000 7.2548
bond_coeff 550 10.0000 7.6282
bond_coeff 551 10.0000 7.5419
bond_coeff 552 10.0000 7.1625
bond_coeff 553 10.0000 3.7921
bond_coeff 554 10.0000 6.2246
bond_coeff 555 10.0000 6.6434
bond_coeff 556 10.0000 6.8904
bond_coeff 557 10.0000 3.8075
bond_coeff 558 10.0000 5.8047
bond_coeff 559 10.0000 5.2242
bond_coeff 560 10.0000 6.0258
bond_coeff 561 10.0000 3.8322
bond_coeff 562 10.0000 5.1844
bond_coeff 563 10.0000 4.7046
bond_coeff 564 10.0000 5.9592
bond_coeff 565 10.0000 3.7460
bond_coeff 566 10.0000 5.4812
bond_coeff 567 10.0000 5.0148
bond_coeff 568 10.0000 5.7448
bond_coeff 569 10.0000 5.1728
bond_coeff 570 10.0000 6.2718
bond_coeff 571 10.0000 3.9467
bond_coeff 572 10.0000 5.4400
bond_coeff 573 10.0000 4.6800
bond_coeff 574 10.0000 6.2194
bond_coeff 575 10.0000 5.6037
bond_coeff 576 10.0000 3.8931
bond_coeff 577 10.0000 5.3990
bond_coeff 578 10.0000 5.1862
bond_coeff 579 10.0000 7.0270
bond_coeff 580 10.0000 3.8100
bond_coeff 581 10.0000 5.3513
bond_coeff 582 10.0000 5.6002
bond_coeff 583 10.0000 6.1279
bond_coeff 584 10.0000 7.5583
bond_coeff 585 10.0000 3.8583
bond_coeff 586 10.0000 5.7466
bond_coeff 587 10.0000 5.0206
bond_coeff 588 10.0000 5.7735
bond_coeff 589 10.0000 6.7652
bond_coeff 590 10.0000 5.7504
bond_coeff 591 10.0000 5.3384
bond_coeff 592 10.0000 3.8384
bond_coeff 593 10.0000 5.3949
bond_coeff 594 10.0000 5.3494
bond_coeff 595 10.0000 6.0143
bond_coeff 596 10.0000 3.7203
bond_coeff 597 10.0000 5.6972
bond_coeff 598 10.0000 4.8155
bond_coeff 599 10.0000 5.9792
bond_coeff 600 10.0000 3.8742
bond_coeff 601 10.0000 5.0817
bond_coeff 602 10.0000 4.9834
bond_coeff 603 10.0000 6.0608
bond_coeff 604 10.0000 6.0997
bond_coeff 605 10.0000 7.8897
bond_coeff 606 10.0000 3.8759
bond_coeff 607 10.0000 5.6545
bond_coeff 608 10.0000 5.0542
bond_coeff 609 10.0000 6.1362
bond_coeff 610 10.0000 6.7091
bond_coeff 611 10.0000 5.8517
bond_coeff 612 10.0000 7.1489
bond_coeff 613 10.0000 3.7685
bond_coeff 614 10.0000 5.3478
bond_coeff 615 10.0000 5.1255
bond_coeff 616 10.0000 5.9096
bond_coeff 617 10.0000 3.8218
bond_coeff 618 10.0000 5.5123
bond_coeff 619 10.0000 4.9788
bond_coeff 620 10.0000 5.6957
bond_coeff 621 10.0000 3.8761
bond_coeff 622 10.0000 5.6480
bond_coeff 623 10.0000 5.0107
bond_coeff 624 10.0000 7.9303
bond_coeff 625 10.0000 6.5952
bond_coeff 626 10.0000 7.4624
bond_coeff 627 10.0000 6.3638
bond_coeff 628 10.0000 7.2841
bond_coeff 629 10.0000 3.9268
bond_coeff 630 10.0000 5.2826
bond_coeff 631 10.0000 6.8633
bond_coeff 632 10.0000 7.4147
bond_coeff 633 10.0000 7.9939
bond_coeff 634 10.0000 3.7754
bond_coeff 635 10.0000 5.7491
bond_coeff 636 10.0000 3.7687
bond_coeff 637 10.0000 6.5125
bond_coeff 638 10.0000 6.6769
bond_coeff 639 10.0000 5.8538
bond_coeff 640 10.0000 3.8302
bond_coeff 641 10.0000 5.9350
bond_coeff 642 10.0000 5.4641
bond_coeff 643 10.0000 6.1019
bond_coeff 644 10.0000 3.9178
bond_coeff 645 10.0000 5.6939
bond_coeff 646 10.0000 5.5299
bond_coeff 647 10.0000 3.7829
bond_coeff 648 10.0000 5.4569
bond_coeff 649 10.0000 3.8428
bond_coeff 650 10.0000 6.8236
bond_coeff 651 10.0000 3.8168
bond_coeff 652 10.0000 6.1752
bond_coeff 653 10.0000 3.8798
bond_coeff 654 10.0000 5.6809
bond_coeff 655 10.0000 6.8318
bond_coeff 656 10.0000 3.7346
bond_coeff 657 10.0000 6.5768
bond_coeff 658 10.0000 3.7843
bond_coeff 659 10.0000 6.6631
bond_coeff 660 10.0000 3.9692
bond_coeff 661 10.0000 6.4894
bond_coeff 662 10.0000 3.7924
bond_coeff 663 10.0000 7.2182
bond_coeff 664 10.0000 3.9780
bond_coeff 665 10.0000 6.7287
bond_coeff 666 10.0000 3.9084
bond_coeff 667 10.0000 6.4854
bond_coeff 668 10.0000 3.8794
bond_coeff 669 10.0000 5.5709
bond_coeff 670 10.0000 7.6187
bond_coeff 671 10.0000 3.7599
bond_coeff 672 10.0000 6.0316
bond_coeff 673 10.0000 3.9038
bond_coeff 674 10.0000 5.3450
bond_coeff 675 10.0000 3.6795
bond_coeff 676 10.0000 5.4941
bond_coeff 677 10.0000 3.8338
bond_coeff 678 10.0000 7.0736
bond_coeff 679 10.0000 3.8372
bond_coeff 680 10.0000 5.7464
bond_coeff 681 10.0000 3.8577
bond_coeff 682 10.0000 6.9794
bond_coeff 683 10.0000 3.9170
bond_coeff 684 10.0000 3.7690
bond_coeff 685 10.0000 6.1345
bond_coeff 686 10.0000 3.8942
bond_coeff 687 10.0000 6.9343
bond_coeff 688 10.0000 3.8388
bond_coeff 689 10.0000 5.9337
bond_coeff 690 10.0000 3.8311
bond_coeff 691 10.0000 6.0858
bond_coeff 692 10.0000 5.7648
bond_coeff 693 10.0000 7.7062
bond_coeff 694 10.0000 3.8546
bond_coeff 695 10.0000 5.7972
bond_coeff 696 10.0000 7.5902
bond_coeff 697 10.0000 7.8337
bond_coeff 698 10.0000 7.3570
bond_coeff 699 10.0000 3.7681
bond_coeff 700 10.0000 5.5231
bond_coeff 701 10.0000 4.9077
bond_coeff 702 10.0000 6.2706
bond_coeff 703 10.0000 4.9580
bond_coeff 704 10.0000 5.7399
bond_coeff 705 10.0000 7.0010
bond_coeff 706 10.0000 3.8383
bond_coeff 707 10.0000 5.3637
bond_coeff 708 10.0000 5.5571
bond_coeff 709 10.0000 5.6189
bond_coeff 710 10.0000 6.5469
bond_coeff 711 10.0000 3.7463
bond_coeff 712 10.0000 5.6677
bond_coeff 713 10.0000 7.6370
bond_coeff 714 10.0000 3.8293
bond_coeff 715 10.0000 5.7896
bond_coeff 716 10.0000 3.8517
bond_coeff 717 10.0000 7.4039
bond_coeff 718 10.0000 3.8153
bond_coeff 719 10.0000 7.1563
bond_coeff 720 10.0000 7.8637
bond_coeff 721 10.0000 3.8219
bond_coeff 722 10.0000 5.1457
bond_coeff 723 10.0000 5.5893
bond_coeff 724 10.0000 6.3660
bond_coeff 725 10.0000 3.7836
bond_coeff 726 10.0000 5.4709
bond_coeff 727 10.0000 4.8305
bond_coeff 728 10.0000 5.6930
bond_coeff 729 10.0000 3.8899
bond_coeff 730 10.0000 5.6860
bond_coeff 731 10.0000 5.7041
bond_coeff 732 10.0000 6.4760
bond_coeff 733 10.0000 3.8078
bond_coeff 734 10.0000 5.6613
bond_coeff 735 10.0000 5.3411
bond_coeff 736 10.0000 7.1172
bond_coeff 737 10.0000 7.9837
bond_coeff 738 10.0000 3.8253
bond_coeff 739 10.0000 5.6330
bond_coeff 740 10.0000 5.9900
bond_coeff 741 10.0000 6.5896
bond_coeff 742 10.0000 3.9080
bond_coeff 743 10.0000 5.4450
bond_coeff 744 10.0000 7.8837
bond_coeff 745 10.0000 7.9127
bond_coeff 746 10.0000 7.7286
bond_coeff 747 10.0000 3.8223
bond_coeff 748 10.0000 6.7315
bond_coeff 749 10.0000 3.9226
bond_coeff 750 10.0000 6.7099
bond_coeff 751 10.0000 7.0636
bond_coeff 752 10.0000 3.8029
bond_coeff 753 10.0000 5.5917
bond_coeff 754 10.0000 5.4981
bond_coeff 755 10.0000 7.4476
bond_coeff 756 10.0000 3.9184
bond_coeff 757 10.0000 5.4905
bond_coeff 758 10.0000 5.7231
bond_coeff 759 10.0000 6.8253
bond_coeff 760 10.0000 3.7923
bond_coeff 761 10.0000 5.3331
bond_coeff 762 10.0000 6.9960
bond_coeff 763 10.0000 3.8722
bond_coeff 764 10.0000 6.6301
bond_coeff 765 10.0000 3.7951
bond_coeff 766 10.0000 6.5427
bond_coeff 767 10.0000 6.2709
bond_coeff 768 10.0000 7.0284
bond_coeff 769 10.0000 7.1509
bond_coeff 770 10.0000 3.8933
bond_coeff 771 10.0000 6.7636
bond_coeff 772 10.0000 6.3323
bond_coeff 773 10.0000 7.1122
bond_coeff 774 10.0000 7.0329
bond_coeff 775 10.0000 7.6782
bond_coeff 776 10.0000 3.8272
bond_coeff 777 10.0000 5.1032
bond_coeff 778 10.0000 5.4814
bond_coeff 779 10.0000 6.6805
bond_coeff 780 10.0000 6.5287
bond_coeff 781 10.0000 3.8433
bond_coeff 782 10.0000 5.6752
bond_coeff 783 10.0000 5.1662
bond_coeff 784 10.0000 6.0585
bond_coeff 785 10.0000 7.9812
bond_coeff 786 10.0000 7.1814
bond_coeff 787 10.0000 5.7218
bond_coeff 788 10.0000 7.6289
bond_coeff 789 10.0000 3.9200
bond_coeff 790 10.0000 5.5979
bond_coeff 791 10.0000 5.0965
bond_coeff 792 10.0000 6.1639
bond_coeff 793 10.0000 3.9144
bond_coeff 794 10.0000 5.3340
bond_coeff 795 10.0000 4.7789
bond_coeff 796 10.0000 6.0230
bond_coeff 797 10.0000 3.8061
bond_coeff 798 10.0000 5.3627
bond_coeff 799 10.0000 5.0335
bond_coeff 800 10.0000 6.1223
bond_coeff 801 10.0000 7.8701
bond_coeff 802 10.0000 6.4903
bond_coeff 803 10.0000 6.6623
bond_coeff 804 10.0000 7.2022
bond_coeff 805 10.0000 3.8012
bond_coeff 806 10.0000 5.5336
bond_coeff 807 10.0000 5.1631
bond_coeff 808 10.0000 6.3514
bond_coeff 809 10.0000 7.8589
bond_coeff 810 10.0000 3.8634
bond_coeff 811 10.0000 5.4429
bond_coeff 812 10.0000 5.2191
bond_coeff 813 10.0000 5.8977
bond_coeff 814 10.0000 3.8202
bond_coeff 815 10.0000 5.5181
bond_coeff 816 10.0000 4.9590
bond_coeff 817 10.0000 5.9329
bond_coeff 818 10.0000 7.3699
bond_coeff 819 10.0000 7.8081
bond_coeff 820 10.0000 3.8394
bond_coeff 821 10.0000 5.6069
bond_coeff 822 10.0000 5.9709
bond_coeff 823 10.0000 5.2009
bond_coeff 824 10.0000 6.3047
bond_coeff 825 10.0000 7.9048
bond_coeff 826 10.0000 7.9959
bond_coeff 827 10.0000 7.3672
bond_coeff 828 10.0000 3.8688
bond_coeff 829 10.0000 6.1630
bond_coeff 830 10.0000 5.9645
bond_coeff 831 10.0000 4.8542
bond_coeff 832 10.0000 3.9071
bond_coeff 833 10.0000 6.1167
bond_coeff 834 10.0000 6.2660
bond_coeff 835 10.0000 3.7827
bond_coeff 836 10.0000 6.0069
bond_coeff 837 10.0000 7.9299
bond_coeff 838 10.0000 3.7801
bond_coeff 839 10.0000 5.4171
bond_coeff 840 10.0000 5.3676
bond_coeff 841 10.0000 6.1428
bond_coeff 842 10.0000 3.8041
bond_coeff 843 10.0000 5.5560
bond_coeff 844 10.0000 5.0973
bond_coeff 845 10.0000 6.1444
bond_coeff 846 10.0000 3.7760
bond_coeff 847 10.0000 5.5536
bond_coeff 848 10.0000 5.3219
bond_coeff 849 10.0000 5.9864
bond_coeff 850 10.0000 3.8903
bond_coeff 851 10.0000 5.5337
bond_coeff 852 10.0000 4.7414
bond_coeff 853 10.0000 6.8274
bond_coeff 854 10.0000 7.1833
bond_coeff 855 10.0000 3.9455
bond_coeff 856 10.0000 5.4387
bond_coeff 857 10.0000 6.8176
bond_coeff 858 10.0000 7.9623
bond_coeff 859 10.0000 6.5940
bond_coeff 860 10.0000 3.9010
bond_coeff 861 10.0000 6.8629
bond_coeff 862 10.0000 3.9908
bond_coeff 863 10.0000 5.2448
bond_coeff 864 10.0000 7.2178
bond_coeff 865 10.0000 7.9344
bond_coeff 866 10.0000 3.7414
bond_coeff 867 10.0000 7.1220
bond_coeff 868 10.0000 3.8681
bond_coeff 869 10.0000 6.6039
bond_coeff 870 10.0000 3.8982
bond_coeff 871 10.0000 6.5002
bond_coeff 872 10.0000 7.9825
bond_coeff 873 10.0000 3.8707
bond_coeff 874 10.0000 7.0918
bond_coeff 875 10.0000 6.3388
bond_coeff 876 10.0000 7.5680
bond_coeff 877 10.0000 3.7313
bond_coeff 878 10.0000 5.1617
bond_coeff 879 10.0000 5.1682
bond_coeff 880 10.0000 6.3561
bond_coeff 881 10.0000 3.8911
bond_coeff 882 10.0000 5.5099
bond_coeff 883 10.0000 4.9646
bond_coeff 884 10.0000 6.0833
bond_coeff 885 10.0000 3.8318
bond_coeff 886 10.0000 5.3899
bond_coeff 887 10.0000 5.0907
bond_coeff 888 10.0000 6.0179
bond_coeff 889 10.0000 5.1161
bond_coeff 890 10.0000 7.4341
bond_coeff 891 10.0000 7.1222
bond_coeff 892 10.0000 6.5980
bond_coeff 893 10.0000 3.8284
bond_coeff 894 10.0000 5.5666
bond_coeff 895 10.0000 4.8990
bond_coeff 896 10.0000 6.2635
bond_coeff 897 10.0000 7.2899
bond_coeff 898 10.0000 7.3828
bond_coeff 899 10.0000 3.8613
bond_coeff 900 10.0000 5.1738
bond_coeff 901 10.0000 4.9385
bond_coeff 902 10.0000 6.1501
bond_coeff 903 10.0000 3.7469
bond_coeff 904 10.0000 5.2744
bond_coeff 905 10.0000 4.8374
bond_coeff 906 10.0000 5.9035
bond_coeff 907 10.0000 6.8807
bond_coeff 908 10.0000 3.7043
bond_coeff 909 10.0000 5.4418
bond_coeff 910 10.0000 5.4687
bond_coeff 911 10.0000 6.4382
bond_coeff 912 10.0000 6.4684
bond_coeff 913 10.0000 6.2828
bond_coeff 914 10.0000 7.2319
bond_coeff 915 10.0000 3.8213
bond_coeff 916 10.0000 5.7605
bond_coeff 917 10.0000 5.6895
bond_coeff 918 10.0000 6.6104
bond_coeff 919 10.0000 3.7879
bond_coeff 920 10.0000 5.6459
bond_coeff 921 10.0000 5.2377
bond_coeff 922 10.0000 6.1216
bond_coeff 923 10.0000 3.8906
bond_coeff 924 10.0000 5.3680
bond_coeff 925 10.0000 4.5882
bond_coeff 926 10.0000 6.1673
bond_coeff 927 10.0000 7.4331
bond_coeff 928 10.0000 7.5707
bond_coeff 929 10.0000 6.8708
bond_coeff 930 10.0000 3.9400
bond_coeff 931 10.0000 5.2139
bond_coeff 932 10.0000 5.0828
bond_coeff 933 10.0000 6.0615
bond_coeff 934 10.0000 3.8073
bond_coeff 935 10.0000 5.5925
bond_coeff 936 10.0000 5.0779
bond_coeff 937 10.0000 6.4152
bond_coeff 938 10.0000 3.8159
bond_coeff 939 10.0000 5.4420
bond_coeff 940 10.0000 5.7183
bond_coeff 941 10.0000 6.3362
bond_coeff 942 10.0000 3.7343
bond_coeff 943 10.0000 5.6368
bond_coeff 944 10.0000 4.8538
bond_coeff 945 10.0000 6.0614
bond_coeff 946 10.0000 7.5157
bond_coeff 947 10.0000 3.7630
bond_coeff 948 10.0000 5.2218
bond_coeff 949 10.0000 5.1459
bond_coeff 950 10.0000 6.2449
bond_coeff 951 10.0000 3.8736
bond_coeff 952 10.0000 5.4865
bond_coeff 953 10.0000 5.0414
bond_coeff 954 10.0000 6.0898
bond_coeff 955 10.0000 3.7919
bond_coeff 956 10.0000 5.5648
bond_coeff 957 10.0000 5.2591
bond_coeff 958 10.0000 6.3114
bond_coeff 959 10.0000 7.5336
bond_coeff 960 10.0000 3.8773
bond_coeff 961 10.0000 5.4987
bond_coeff 962 10.0000 5.1604
bond_coeff 963 10.0000 5.9877
bond_coeff 964 10.0000 7.5131
bond_coeff 965 10.0000 3.8678
bond_coeff 966 10.0000 5.5815
bond_coeff 967 10.0000 4.9811
bond_coeff 968 10.0000 5.9260
bond_coeff 969 10.0000 3.9185
bond_coeff 970 10.0000 5.3989
bond_coeff 971 10.0000 5.1457
bond_coeff 972 10.0000 6.1253
bond_coeff 973 10.0000 3.7535
bond_coeff 974 10.0000 5.6056
bond_coeff 975 10.0000 5.1343
bond_coeff 976 10.0000 5.8661
bond_coeff 977 10.0000 6.3111
bond_coeff 978 10.0000 6.2582
bond_coeff 979 10.0000 7.3209
bond_coeff 980 10.0000 3.7923
bond_coeff 981 10.0000 5.3557
bond_coeff 982 10.0000 4.8464
bond_coeff 983 10.0000 5.8589
bond_coeff 984 10.0000 7.8928
bond_coeff 985 10.0000 3.8859
bond_coeff 986 10.0000 5.4543
bond_coeff 987 10.0000 4.9006
bond_coeff 988 10.0000 6.3326
bond_coeff 989 10.0000 3.7756
bond_coeff 990 10.0000 5.2728
bond_coeff 991 10.0000 5.1084
bond_coeff 992 10.0000 6.5157
bond_coeff 993 10.0000 7.7251
bond_coeff 994 10.0000 7.9569
bond_coeff 995 10.0000 3.7910
bond_coeff 996 10.0000 5.4421
bond_coeff 997 10.0000 5.4006
bond_coeff 998 10.0000 7.8323
bond_coeff 999 10.0000 7.5216
bond_coeff 1000 10.0000 4.7210
bond_coeff 1001 10.0000 7.0789
bond_coeff 1002 10.0000 7.8345
bond_coeff 1003 10.0000 3.8178
bond_coeff 1004 10.0000 5.6387
bond_coeff 1005 10.0000 7.3679
bond_coeff 1006 10.0000 7.9308
bond_coeff 1007 10.0000 3.8003
bond_coeff 1008 10.0000 6.5284
bond_coeff 1009 10.0000 3.7692
bond_coeff 1010 10.0000 5.5391
bond_coeff 1011 10.0000 7.9115
bond_coeff 1012 10.0000 7.1976
bond_coeff 1013 10.0000 7.0647
bond_coeff 1014 10.0000 3.7833
bond_coeff 1015 10.0000 6.5258
bond_coeff 1016 10.0000 3.9939
bond_coeff 1017 10.0000 5.6073
bond_coeff 1018 10.0000 5.3549
bond_coeff 1019 10.0000 6.6332
bond_coeff 1020 10.0000 3.8809
bond_coeff 1021 10.0000 5.5680
bond_coeff 1022 10.0000 5.1479
bond_coeff 1023 10.0000 6.2142
bond_coeff 1024 10.0000 3.8253
bond_coeff 1025 10.0000 5.3992
bond_coeff 1026 10.0000 4.8635
bond_coeff 1027 10.0000 6.0451
bond_coeff 1028 10.0000 3.9805
bond_coeff 1029 10.0000 5.4898
bond_coeff 1030 10.0000 4.8386
bond_coeff 1031 10.0000 6.3806
bond_coeff 1032 10.0000 3.8694
bond_coeff 1033 10.0000 5.2837
bond_coeff 1034 10.0000 5.1616
bond_coeff 1035 10.0000 5.9361
bond_coeff 1036 10.0000 3.9010
bond_coeff 1037 10.0000 5.6794
bond_coeff 1038 10.0000 5.1524
bond_coeff 1039 10.0000 5.8192
bond_coeff 1040 10.0000 3.8560
bond_coeff 1041 10.0000 5.5553
bond_coeff 1042 10.0000 5.3541
bond_coeff 1043 10.0000 6.3235
bond_coeff 1044 10.0000 3.7307
bond_coeff 1045 10.0000 5.5850
bond_coeff 1046 10.0000 5.2203
bond_coeff 1047 10.0000 6.4925
bond_coeff 1048 10.0000 3.8017
bond_coeff 1049 10.0000 5.3438
bond_coeff 1050 10.0000 5.0409
bond_coeff 1051 10.0000 6.4099
bond_coeff 1052 10.0000 3.8821
bond_coeff 1053 10.0000 5.3416
bond_coeff 1054 10.0000 5.0802
bond_coeff 1055 10.0000 5.9142
bond_coeff 1056 10.0000 7.9243
bond_coeff 1057 10.0000 3.8649
bond_coeff 1058 10.0000 5.6687
bond_coeff 1059 10.0000 5.2210
bond_coeff 1060 10.0000 5.1212
bond_coeff 1061 10.0000 6.3272
bond_coeff 1062 10.0000 7.6725
bond_coeff 1063 10.0000 3.8975
bond_coeff 1064 10.0000 5.6958
bond_coeff 1065 10.0000 6.2422
bond_coeff 1066 10.0000 5.0198
bond_coeff 1067 10.0000 5.4000
bond_coeff 1068 10.0000 3.9007
bond_coeff 1069 10.0000 6.7175
bond_coeff 1070 10.0000 6.3543
bond_coeff 1071 10.0000 4.3513
bond_coeff 1072 10.0000 6.7875
bond_coeff 1073 10.0000 3.8640
bond_coeff 1074 10.0000 5.5980
bond_coeff 1075 10.0000 4.8604
bond_coeff 1076 10.0000 5.2936
bond_coeff 1077 10.0000 3.8324
bond_coeff 1078 10.0000 5.8400
bond_coeff 1079 10.0000 6.1705
bond_coeff 1080 10.0000 7.5858
bond_coeff 1081 10.0000 3.8316
bond_coeff 1082 10.0000 5.7784
bond_coeff 1083 10.0000 5.7564
bond_coeff 1084 10.0000 7.0480
bond_coeff 1085 10.0000 3.7391
bond_coeff 1086 10.0000 5.1592
bond_coeff 1087 10.0000 4.9695
bond_coeff 1088 10.0000 6.2857
bond_coeff 1089 10.0000 3.8464
bond_coeff 1090 10.0000 5.4991
bond_coeff 1091 10.0000 5.1690
bond_coeff 1092 10.0000 6.4790
bond_coeff 1093 10.0000 3.8645
bond_coeff 1094 10.0000 5.4727
bond_coeff 1095 10.0000 5.1279
bond_coeff 1096 10.0000 6.0456
bond_coeff 1097 10.0000 3.8009
bond_coeff 1098 10.0000 5.3253
bond_coeff 1099 10.0000 4.8176
bond_coeff 1100 10.0000 5.7125
bond_coeff 1101 10.0000 7.9653
bond_coeff 1102 10.0000 3.8810
bond_coeff 1103 10.0000 5.5423
bond_coeff 1104 10.0000 5.4650
bond_coeff 1105 10.0000 5.7633
bond_coeff 1106 10.0000 3.7651
bond_coeff 1107 10.0000 5.8162
bond_coeff 1108 10.0000 5.2481
bond_coeff 1109 10.0000 5.9394
bond_coeff 1110 10.0000 3.8310
bond_coeff 1111 10.0000 5.4985
bond_coeff 1112 10.0000 5.3016
bond_coeff 1113 10.0000 6.4838
bond_coeff 1114 10.0000 3.8941
bond_coeff 1115 10.0000 5.6275
bond_coeff 1116 10.0000 5.3723
bond_coeff 1117 10.0000 5.8927
bond_coeff 1118 10.0000 3.8530
bond_coeff 1119 10.0000 5.5698
bond_coeff 1120 10.0000 5.0662
bond_coeff 1121 10.0000 5.6495
bond_coeff 1122 10.0000 3.9197
bond_coeff 1123 10.0000 5.7005
bond_coeff 1124 10.0000 5.3202
bond_coeff 1125 10.0000 6.2136
bond_coeff 1126 10.0000 3.7981
bond_coeff 1127 10.0000 5.4175
bond_coeff 1128 10.0000 5.2098
bond_coeff 1129 10.0000 6.2666
bond_coeff 1130 10.0000 3.6859
bond_coeff 1131 10.0000 5.5266
bond_coeff 1132 10.0000 5.1835
bond_coeff 1133 10.0000 6.2585
bond_coeff 1134 10.0000 3.8331
bond_coeff 1135 10.0000 5.3201
bond_coeff 1136 10.0000 4.9496
bond_coeff 1137 10.0000 5.6947
bond_coeff 1138 10.0000 7.2063
bond_coeff 1139 10.0000 7.5765
bond_coeff 1140 10.0000 6.9429
bond_coeff 1141 10.0000 3.8097
bond_coeff 1142 10.0000 5.4863
bond_coeff 1143 10.0000 5.1792
bond_coeff 1144 10.0000 4.3874
bond_coeff 1145 10.0000 4.3834
bond_coeff 1146 10.0000 7.9699
bond_coeff 1147 10.0000 7.9889
bond_coeff 1148 10.0000 6.4880
bond_coeff 1149 10.0000 3.9226
bond_coeff 1150 10.0000 5.8456
bond_coeff 1151 10.0000 5.8329
bond_coeff 1152 10.0000 7.5084
bond_coeff 1153 10.0000 3.7573
bond_coeff 1154 10.0000 6.2657
bond_coeff 1155 10.0000 7.0172
bond_coeff 1156 10.0000 7.9090
bond_coeff 1157 10.0000 3.8464
bond_coeff 1158 10.0000 6.7998
bond_coeff 1159 10.0000 6.4241
bond_coeff 1160 10.0000 6.6157
bond_coeff 1161 10.0000 7.7634
bond_coeff 1162 10.0000 7.7210
bond_coeff 1163 10.0000 5.9269
bond_coeff 1164 10.0000 6.2821
bond_coeff 1165 10.0000 3.8892
bond_coeff 1166 10.0000 5.8860
bond_coeff 1167 10.0000 5.5751
bond_coeff 1168 10.0000 6.5410
bond_coeff 1169 10.0000 7.9916
bond_coeff 1170 10.0000 3.8863
bond_coeff 1171 10.0000 5.5959
bond_coeff 1172 10.0000 5.3351
bond_coeff 1173 10.0000 6.4563
bond_coeff 1174 10.0000 3.8436
bond_coeff 1175 10.0000 5.4696
bond_coeff 1176 10.0000 5.3674
bond_coeff 1177 10.0000 6.2843
bond_coeff 1178 10.0000 3.8954
bond_coeff 1179 10.0000 5.7832
bond_coeff 1180 10.0000 5.5060
bond_coeff 1181 10.0000 6.3832
bond_coeff 1182 10.0000 7.7762
bond_coeff 1183 10.0000 3.8038
bond_coeff 1184 10.0000 5.5569
bond_coeff 1185 10.0000 5.0181
bond_coeff 1186 10.0000 6.2557
bond_coeff 1187 10.0000 3.8584
bond_coeff 1188 10.0000 5.1934
bond_coeff 1189 10.0000 4.7663
bond_coeff 1190 10.0000 6.0103
bond_coeff 1191 10.0000 3.8187
bond_coeff 1192 10.0000 5.3217
bond_coeff 1193 10.0000 4.8929
bond_coeff 1194 10.0000 6.1146
bond_coeff 1195 10.0000 3.7839
bond_coeff 1196 10.0000 5.5392
bond_coeff 1197 10.0000 5.3230
bond_coeff 1198 10.0000 6.1402
bond_coeff 1199 10.0000 7.7477
bond_coeff 1200 10.0000 7.1452
bond_coeff 1201 10.0000 7.4756
bond_coeff 1202 10.0000 3.8710
bond_coeff 1203 10.0000 5.5219
bond_coeff 1204 10.0000 4.8927
bond_coeff 1205 10.0000 6.0439
bond_coeff 1206 10.0000 3.8489
bond_coeff 1207 10.0000 5.4191
bond_coeff 1208 10.0000 5.0525
bond_coeff 1209 10.0000 6.7876
bond_coeff 1210 10.0000 3.9127
bond_coeff 1211 10.0000 5.4668
bond_coeff 1212 10.0000 5.7944
bond_coeff 1213 10.0000 6.9718
bond_coeff 1214 10.0000 7.4902
bond_coeff 1215 10.0000 3.8192
bond_coeff 1216 10.0000 5.8450
bond_coeff 1217 10.0000 5.4319
bond_coeff 1218 10.0000 6.6521
bond_coeff 1219 10.0000 7.2675
bond_coeff 1220 10.0000 5.8927
bond_coeff 1221 10.0000 3.8653
bond_coeff 1222 10.0000 5.3485
bond_coeff 1223 10.0000 5.2722
bond_coeff 1224 10.0000 6.1059
bond_coeff 1225 10.0000 3.9068
bond_coeff 1226 10.0000 5.6530
bond_coeff 1227 10.0000 4.9214
bond_coeff 1228 10.0000 6.0215
bond_coeff 1229 10.0000 3.8750
bond_coeff 1230 10.0000 5.4061
bond_coeff 1231 10.0000 4.9675
bond_coeff 1232 10.0000 7.9351
bond_coeff 1233 10.0000 6.4958
bond_coeff 1234 10.0000 7.7283
bond_coeff 1235 10.0000 3.8435
bond_coeff 1236 10.0000 5.3549
bond_coeff 1237 10.0000 7.1087
bond_coeff 1238 10.0000 7.8382
bond_coeff 1239 10.0000 3.8990
bond_coeff 1240 10.0000 6.3826
bond_coeff 1241 10.0000 3.9166
bond_coeff 1242 10.0000 6.4396
bond_coeff 1243 10.0000 6.3410
bond_coeff 1244 10.0000 6.1519
bond_coeff 1245 10.0000 3.8473
bond_coeff 1246 10.0000 5.9126
bond_coeff 1247 10.0000 5.5201
bond_coeff 1248 10.0000 6.7569
bond_coeff 1249 10.0000 3.8387
bond_coeff 1250 10.0000 5.4862
bond_coeff 1251 10.0000 5.7394
bond_coeff 1252 10.0000 3.7484
bond_coeff 1253 10.0000 5.5854
bond_coeff 1254 10.0000 7.9185
bond_coeff 1255 10.0000 3.7900
bond_coeff 1256 10.0000 7.2367
bond_coeff 1257 10.0000 3.9498
bond_coeff 1258 10.0000 6.6544
bond_coeff 1259 10.0000 3.9162
bond_coeff 1260 10.0000 5.8264
bond_coeff 1261 10.0000 7.6664
bond_coeff 1262 10.0000 3.8766
bond_coeff 1263 10.0000 6.6855
bond_coeff 1264 10.0000 3.8547
bond_coeff 1265 10.0000 6.4879
bond_coeff 1266 10.0000 3.7814
bond_coeff 1267 10.0000 6.2568
bond_coeff 1268 10.0000 3.8678
bond_coeff 1269 10.0000 6.8352
bond_coeff 1270 10.0000 3.8415
bond_coeff 1271 10.0000 6.5267
bond_coeff 1272 10.0000 3.8428
bond_coeff 1273 10.0000 6.8857
bond_coeff 1274 10.0000 3.8629
bond_coeff 1275 10.0000 6.7807
bond_coeff 1276 10.0000 3.8085
bond_coeff 1277 10.0000 6.5857
bond_coeff 1278 10.0000 3.8381
bond_coeff 1279 10.0000 6.5198
bond_coeff 1280 10.0000 7.7293
bond_coeff 1281 10.0000 3.8870
bond_coeff 1282 10.0000 6.2965
bond_coeff 1283 10.0000 7.1034
bond_coeff 1284 10.0000 3.8144
bond_coeff 1285 10.0000 6.4933
bond_coeff 1286 10.0000 3.7045
bond_coeff 1287 10.0000 5.8869
bond_coeff 1288 10.0000 7.0497
bond_coeff 1289 10.0000 3.8291
bond_coeff 1290 10.0000 6.8798
bond_coeff 1291 10.0000 3.8998

#Set up integrator
fix myIntegrator all nve
fix myThermostat all langevin 300.0 300.0 1000.0 ${myseed}
fix myThermostat all langevin 300.0 300.0 1000.0 12345

#Record data
thermo ${thermo_freq}
thermo 10000
dump trajDump all dcd ${config_freq} traj.dcd
dump trajDump all dcd 10000 traj.dcd

print "Running simulation..."
Running simulation...
run ${nsteps}
run 100000000
WARNING: No pairwise cutoff or binsize set. Atom sorting therefore disabled. (src/atom.cpp:2486)
Per MPI rank memory allocation (min/avg/max) = 12.2 | 12.2 | 12.2 Mbytes
   Step          Temp          E_pair         E_mol          TotEng         Press     
         0   0              0              1.0503542e-05  1.0503542e-05  6.2583403e-05
     10000   347.18003      0              259.57155      566.93024     -0.47831218   
     20000   285.42037      0              262.92245      515.60527     -1.2910063    
     30000   288.77946      0              269.38974      525.04637     -0.16364491   
     40000   304.37552      0              252.88296      522.34678      2.0186569    
     50000   288.27766      0              242.12352      497.3359      -0.83437943   
     60000   296.56277      0              289.01932      551.56651      1.0768361    
     70000   304.05724      0              269.92017      539.10222      1.0698505    
     80000   308.31799      0              241.09534      514.04944      0.53020895   
     90000   315.16235      0              258.76975      537.78316      0.29401653   
    100000   302.43232      0              262.16483      529.90834      1.5067697    
    110000   294.89671      0              256.38636      517.45859      0.74314484   
    120000   280.44669      0              270.14693      518.42655      0.25194342   
    130000   324.42939      0              249.89315      537.11068      1.4122069    
    140000   296.13395      0              251.23438      513.40194      1.5144942    
    150000   327.74757      0              270.35871      560.51383      0.71712712   
    160000   306.57152      0              261.19083      532.59878      1.3697945    
    170000   308.89743      0              280.91689      554.38396     -0.10969984   
    180000   286.0484       0              277.80954      531.04836     -0.65678142   
    190000   307.77799      0              270.04703      542.52306      2.1194904    
    200000   325.81698      0              261.85556      550.30152     -0.70370603   
    210000   300.55803      0              252.3916       518.4758      -1.6977254    
    220000   326.87075      0              267.75258      557.13145      0.93264818   
    230000   272.70517      0              250.0293       491.45535     -0.034941867  
    240000   310.9094       0              246.91112      522.1594      -1.3450487    
    250000   281.73436      0              283.14289      532.56248     -0.81333623   
    260000   295.39852      0              258.91729      520.43377      0.86812725   
    270000   311.92228      0              271.84594      547.99092     -0.33144672   
    280000   292.35817      0              293.03915      551.86401      1.3426253    
    290000   276.81013      0              270.94276      516.00294      0.30980464   
    300000   292.42302      0              270.54192      529.42419     -1.8649732    
    310000   310.94105      0              263.51187      538.78817      1.0202239    
    320000   281.23972      0              274.73646      523.71815     -0.81227066   
    330000   296.81927      0              247.60045      510.37472      0.76421577   
    340000   289.12325      0              255.63135      511.59234      0.1329109    
    350000   310.69557      0              255.38156      530.44053      1.1035157    
    360000   300.06664      0              272.90992      538.55909     -0.34612356   
    370000   294.57564      0              258.57608      519.36406      0.94336916   
    380000   307.63258      0              246.58678      518.93409      0.88966966   
    390000   287.7469       0              275.86372      530.60621     -1.7445908    
    400000   277.22202      0              265.75394      511.17876      1.2522265    
    410000   303.7246       0              273.74506      542.63263      0.19875372   
    420000   301.08782      0              267.87431      534.42754     -0.21899891   
    430000   311.44447      0              249.25837      524.98035      0.59758704   
    440000   291.82048      0              235.96096      494.30981     -1.2133841    
    450000   290.10403      0              266.82578      523.65505     -0.71024847   
    460000   307.13831      0              240.92067      512.8304       1.3947448    
    470000   303.95463      0              270.71551      539.80672      0.92718876   
    480000   282.5857       0              261.68578      511.85907     -1.0845099    
    490000   293.91159      0              249.44434      509.64445      0.098981649  
    500000   292.48726      0              258.72635      517.66549     -1.1637856    
    510000   283.54754      0              245.02946      496.05426      0.1954748    
    520000   292.44477      0              263.97482      522.87634      0.9982223    
    530000   288.77103      0              257.30159      512.95075      0.82196175   
    540000   288.43466      0              266.42582      521.77719     -0.48073209   
    550000   298.55568      0              241.28053      505.59205      0.29046035   
    560000   299.97713      0              273.05782      538.62775     -1.5882339    
    570000   323.85144      0              269.80576      556.51163      0.97569867   
    580000   294.33164      0              253.19372      513.76569      0.74259126   
    590000   277.01563      0              261.36933      506.61143     -1.4836673    
    600000   307.39059      0              261.80902      533.94209     -1.4053125    
    610000   310.76774      0              273.54298      548.66584     -0.87927427   
    620000   309.94677      0              256.46052      530.85658      0.48626688   
    630000   327.16472      0              235.86489      525.50401      0.2856916    
    640000   295.38095      0              241.0603       502.56123     -0.59630573   
    650000   297.64548      0              250.14767      513.65339      2.3118037    
    660000   299.46776      0              269.51758      534.63657     -1.7522184    
    670000   304.28057      0              252.4431       521.82287      0.29104753   
    680000   298.63264      0              260.38142      524.76107     -0.6707685    
    690000   288.86602      0              283.76909      539.50234      0.76012806   
    700000   308.37981      0              254.64883      527.65765     -0.3721697    
    710000   298.80043      0              263.39216      527.92036      0.3746069    
    720000   292.67717      0              264.85258      523.95984      0.88425768   
    730000   280.11028      0              281.85056      529.83235     -0.12923152   
    740000   291.38769      0              294.09748      552.06317      2.6451791    
    750000   325.28851      0              254.70828      542.68639      1.4476666    
    760000   306.66882      0              250.58054      522.07463      1.29086      
    770000   321.98095      0              279.19754      564.24746     -1.1662292    
    780000   287.38152      0              258.38588      512.8049       0.59674589   
    790000   316.97476      0              237.02356      517.64151      1.0755953    
    800000   310.01169      0              264.56796      539.02149      1.8146643    
    810000   299.09639      0              242.42962      507.21983      0.76343934   
    820000   278.24321      0              252.06453      498.39341     -1.0256812    
    830000   298.92541      0              252.91781      517.55665      0.47696798   
    840000   300.03006      0              258.57361      524.19039     -0.55225313   
    850000   279.68984      0              260.36586      507.97544     -0.36781791   
    860000   293.39221      0              251.14909      510.88938     -0.072092229  
    870000   291.56277      0              257.81697      515.93766      0.69303995   
    880000   293.74298      0              262.30011      522.35094     -0.34506803   
    890000   291.96288      0              260.67168      519.14659     -0.73174436   
    900000   305.56136      0              246.32032      516.83397     -0.30283258   
    910000   297.92864      0              276.35703      540.11343      2.7225157    
    920000   287.20121      0              252.99122      507.25062     -1.1995234    
    930000   287.90941      0              244.33879      499.22516      0.77019768   
    940000   303.43814      0              277.09218      545.72614     -1.62046      
    950000   294.49126      0              273.34881      534.06209     -0.34420696   
    960000   308.80363      0              243.85179      517.23583      0.49184729   
    970000   301.16282      0              260.67971      527.29934     -0.51214543   
    980000   286.25036      0              261.69153      515.10914     -0.48701847   
    990000   288.46105      0              271.41749      526.79223     -0.48551783   
   1000000   291.52666      0              264.42248      522.5112      -0.051542029  
   1010000   289.35816      0              263.63954      519.80849      0.63709551   
   1020000   310.26589      0              254.90084      529.57942      1.013618     
   1030000   275.38437      0              273.28688      517.08482     -1.6181938    
   1040000   284.67049      0              253.77186      505.79081      0.0097836423 
   1050000   306.47267      0              249.30174      520.62218      0.41695074   
   1060000   292.0455       0              248.59243      507.14048      0.032828706  
   1070000   274.7441       0              278.70181      521.93293     -0.087992484  
   1080000   311.92987      0              265.69099      541.84269      1.868635     
   1090000   299.96279      0              256.356        521.91323      0.23109987   
   1100000   323.79457      0              254.57252      541.22804     -1.3068946    
   1110000   295.14141      0              238.30899      499.59786     -0.1737802    
   1120000   285.14377      0              265.77622      518.21417     -0.024405966  
   1130000   298.9984       0              280.98856      545.69202     -0.045947416  
   1140000   293.77288      0              284.17849      544.25579      0.33617774   
   1150000   291.09943      0              249.63047      507.34097     -0.059499866  
   1160000   287.58007      0              265.75239      520.3472      -1.190752     
   1170000   316.22325      0              266.60592      546.55855      1.900827     
   1180000   277.02844      0              268.71112      513.96456      2.1648087    
   1190000   298.86832      0              264.55862      529.14692      0.72923495   
   1200000   271.81782      0              286.47233      527.1128      -0.14250337   
   1210000   323.59124      0              269.93268      556.40819     -2.1405475    
   1220000   315.45871      0              267.96306      547.23883      0.68811006   
   1230000   310.51554      0              257.43235      532.33194      1.0972906    
   1240000   303.81874      0              259.75005      528.72095      0.29558225   
   1250000   305.90185      0              297.53355      568.34864     -0.90396146   
   1260000   303.47924      0              275.83049      544.50084     -0.38419308   
   1270000   301.56686      0              271.88831      538.86563     -0.15354274   
   1280000   303.41747      0              274.36029      542.97595      0.78164718   
   1290000   317.48842      0              264.6725       545.74518      0.64908797   
   1300000   294.59587      0              272.78545      533.59135      1.0935876    
   1310000   285.00712      0              271.07911      523.39608      0.98763696   
   1320000   312.21644      0              255.3591       531.76449     -0.87905451   
   1330000   328.17807      0              275.36173      565.89797     -0.38855375   
   1340000   290.83948      0              257.48247      514.96284     -1.7297798    
   1350000   297.50141      0              252.31121      515.68939     -0.4076642    
   1360000   288.63742      0              244.53931      500.07018      0.42231052   
   1370000   288.57957      0              245.10999      500.58965     -0.62167731   
   1380000   309.91208      0              253.25639      527.62174     -0.68578919   
   1390000   308.01909      0              242.92776      515.61724      0.023357597  
   1400000   302.9015       0              254.15429      522.31317     -0.5684203    
   1410000   329.72973      0              270.84749      562.75742     -0.34519614   
   1420000   291.79856      0              262.04656      520.376       -0.33727594   
   1430000   299.10083      0              253.00216      517.7963       1.196245     
   1440000   304.70404      0              267.39757      537.15224      0.65572773   
   1450000   328.6032       0              269.83676      560.74936      0.38888995   
   1460000   314.45452      0              244.38853      522.77529      0.88989064   
   1470000   294.82602      0              281.12869      542.13834     -0.99597908   
   1480000   333.01962      0              265.19456      560.01703      0.78305836   
   1490000   303.25147      0              286.14253      554.61123     -0.91117992   
   1500000   273.80975      0              277.06409      519.46802      0.063724961  
   1510000   307.25948      0              263.14769      535.16469     -0.18574046   
   1520000   312.98064      0              258.33787      535.41982     -1.1770563    
   1530000   295.56177      0              266.24829      527.9093       0.42127896   
   1540000   340.45568      0              270.41174      571.81735      1.5150178    
   1550000   315.1334       0              241.96088      520.94866      0.012477452  
   1560000   304.47089      0              266.50884      536.0571      -0.55091409   
   1570000   303.00659      0              252.32786      520.57977     -3.1222666    
   1580000   299.59772      0              254.11407      519.34811     -0.098051623  
   1590000   306.9827       0              254.1064       525.87836     -0.53156839   
   1600000   299.10643      0              245.63437      510.43347     -0.82641729   
   1610000   296.28569      0              247.48931      509.79121      0.98463536   
   1620000   349.80256      0              253.44286      563.12327      0.29634211   
   1630000   325.48662      0              257.39192      545.54542      3.166412     
   1640000   309.41037      0              252.91572      526.8369       1.2569489    
   1650000   297.20071      0              259.48568      522.59764      1.2847584    
   1660000   304.02853      0              252.11186      521.26849      1.1888982    
   1670000   281.97516      0              265.46188      515.09466      0.051035223  
   1680000   305.50399      0              274.63496      545.09783      0.17957543   
   1690000   298.72312      0              250.20224      514.662       -2.4410892    
   1700000   304.82112      0              278.26779      548.12611     -0.081740044  
   1710000   273.80405      0              243.42934      485.82822     -0.13739042   
   1720000   294.77036      0              260.60214      521.56252     -0.88605881   
   1730000   306.08729      0              259.37558      530.35483      0.78496017   
   1740000   313.69141      0              239.81617      517.52736     -1.0598987    
   1750000   291.07553      0              268.50899      526.19832      0.28349463   
   1760000   297.34239      0              263.1532       526.3906      -0.51076991   
   1770000   301.98719      0              249.22889      516.57833     -0.52745478   
   1780000   309.72386      0              258.99515      533.19387     -1.1401591    
   1790000   331.76845      0              264.60332      558.31812     -1.282341     
   1800000   291.95437      0              258.74022      517.2076       0.18713113   
   1810000   298.83427      0              266.93472      531.49288      1.5577046    
   1820000   291.5483       0              276.77115      534.87902      1.1267488    
   1830000   311.02003      0              285.84666      561.19287      1.0650784    
   1840000   306.65227      0              265.27815      536.75758      0.19427655   
   1850000   291.68133      0              261.20381      519.42946      0.16708774   
   1860000   289.49118      0              283.47046      539.75717      0.10204256   
   1870000   280.97876      0              282.13737      530.88803      1.2885188    
   1880000   306.80889      0              278.58842      550.20651      1.3252631    
   1890000   303.99161      0              273.65305      542.777        0.74162      
   1900000   315.65719      0              259.81983      539.27132      0.60023436   
   1910000   289.59948      0              259.85894      516.24153     -1.6023273    
   1920000   294.28782      0              262.23426      522.76744      0.84029517   
   1930000   295.39538      0              241.07325      502.58695      0.18359547   
   1940000   268.25854      0              256.32579      493.81522      0.064125661  
   1950000   292.62991      0              274.1853       533.25073      0.7840116    
   1960000   312.6671       0              265.56621      542.37058      2.029237     
   1970000   304.98633      0              263.10556      533.11014     -0.3395543    
   1980000   273.35663      0              260.84035      502.84314     -0.33122421   
   1990000   301.39295      0              259.59493      526.41829      0.10640085   
   2000000   316.45265      0              269.60222      549.75794     -1.1828856    
   2010000   288.27687      0              253.75921      508.9709      -0.73306024   
   2020000   312.25567      0              284.70696      561.14709      0.31004015   
   2030000   336.34462      0              263.58529      561.35138      0.1568912    
   2040000   283.46407      0              255.97212      506.92303     -0.34615179   
   2050000   274.48191      0              279.26036      522.25935     -2.1925124    
   2060000   287.80613      0              258.23947      513.0344      -0.39107124   
   2070000   293.03284      0              262.67422      522.09637      0.039192504  
   2080000   301.43738      0              269.71066      536.57334      1.8648784    
   2090000   308.13606      0              263.34246      536.1355      -2.304517     
   2100000   313.84819      0              268.31153      546.16151     -0.94741493   
   2110000   291.46075      0              265.18019      523.21056     -0.33453871   
   2120000   290.94172      0              287.82421      545.39509      0.20782303   
   2130000   294.71186      0              266.60824      527.51683      0.61892354   
   2140000   310.32537      0              249.61731      524.34854      0.034750934  
   2150000   329.67479      0              243.58401      535.44529     -2.022959     
   2160000   285.67387      0              264.39608      517.30333     -1.0670123    
   2170000   297.26926      0              282.57657      545.74922      1.5045601    
   2180000   319.26895      0              264.99976      547.64875     -0.16319734   
   2190000   272.58212      0              247.24766      488.56477     -1.1500496    
   2200000   295.63812      0              247.81282      509.54142     -1.017151     
   2210000   293.18789      0              249.19522      508.75463      1.1770725    
   2220000   303.72654      0              286.34918      555.23847      0.67138469   
   2230000   282.85476      0              275.02012      525.4316       0.20970034   
   2240000   280.63592      0              251.54763      499.99477     -0.47191393   
   2250000   320.07239      0              267.98878      551.34906      0.82123247   
   2260000   319.45478      0              261.77238      544.58588     -1.0909343    
   2270000   296.61236      0              247.66881      510.2599      -0.45340738   
   2280000   306.28501      0              277.77864      548.93294      2.3086334    
   2290000   313.25896      0              269.21597      546.54432     -0.43513349   
   2300000   290.02881      0              272.42094      529.18361     -2.8033207    
   2310000   312.90714      0              258.8071       535.82397      0.32737595   
   2320000   308.3401       0              252.55446      525.52813      1.2703816    
   2330000   264.73767      0              269.82186      504.19428      0.33267934   
   2340000   307.72368      0              286.50538      558.93334      0.46873067   
   2350000   294.65278      0              273.54603      534.40231     -1.0670409    
   2360000   294.12641      0              260.71169      521.10197     -1.9631567    
   2370000   307.4115       0              257.91135      530.06293     -0.85219535   
   2380000   304.39414      0              269.36218      538.84249      2.4150183    
   2390000   314.69159      0              263.69214      542.28879     -1.8689355    
   2400000   325.57514      0              272.289        560.52086      0.12125089   
   2410000   301.6164       0              272.31636      539.33754      0.14463865   
   2420000   321.2648       0              255.89021      540.30613      1.3265004    
   2430000   303.49429      0              275.42861      544.11228     -0.44915367   
   2440000   278.39143      0              268.01446      514.47456     -1.7869089    
   2450000   282.43966      0              267.73684      517.78083     -1.6656584    
   2460000   304.49073      0              260.97603      530.54185     -0.18433971   
   2470000   310.54582      0              244.79726      519.72366      0.087517919  
   2480000   291.07853      0              254.21905      511.91104     -0.11985516   
   2490000   298.99526      0              261.21027      525.91095      0.40739536   
   2500000   276.78195      0              267.00406      512.03929     -1.8094918    
   2510000   344.6007       0              245.40195      550.47715     -0.73002301   
   2520000   289.32478      0              252.60813      508.74752      0.90055657   
   2530000   317.83707      0              253.44733      534.82867      2.5295242    
   2540000   274.96575      0              237.66877      481.09611     -0.54568211   
   2550000   299.55744      0              276.25439      541.45276      0.27331057   
   2560000   293.7184       0              269.65337      529.68244     -1.6708737    
   2570000   286.89519      0              254.29938      508.28785     -1.685186     
   2580000   289.47337      0              256.72866      512.99961     -0.5041609    
   2590000   308.7486       0              266.63294      539.96826     -0.86262699   
   2600000   293.07701      0              273.594        533.05525     -0.93247658   
   2610000   301.88795      0              276.514        543.77558      0.84754463   
   2620000   309.31473      0              279.17207      553.00858     -0.46935896   
   2630000   279.24438      0              258.19979      505.415       -1.1701555    
   2640000   299.98623      0              250.93785      516.51583     -1.2594072    
   2650000   282.68706      0              280.20989      530.4729      -0.9172882    
   2660000   288.60332      0              260.55165      516.05235      0.23567682   
   2670000   323.61129      0              258.35471      544.84797      0.60100046   
   2680000   297.61287      0              251.36848      514.84533     -1.3507877    
   2690000   336.99312      0              264.55433      562.89453      0.37265636   
   2700000   285.1797       0              269.04289      521.51264     -0.98792135   
   2710000   310.62342      0              247.01457      522.00967     -0.64157764   
   2720000   292.48554      0              258.85677      517.79439      1.0088315    
   2730000   293.21296      0              248.99484      508.57645     -0.30208383   
   2740000   327.01914      0              256.79755      546.30778     -2.5297253    
   2750000   304.26575      0              273.38874      542.75538      1.1421149    
   2760000   260.46067      0              255.56018      486.14616      1.5083293    
   2770000   302.52691      0              268.56073      536.38798      0.46321614   
   2780000   310.09654      0              274.7162       549.24485      0.80042071   
   2790000   276.99599      0              274.80388      520.0286      -0.45964122   
   2800000   314.33408      0              258.71637      536.99651      0.28676096   
   2810000   301.23765      0              269.92374      536.60961     -0.088631046  
   2820000   291.03072      0              247.97359      505.62326      0.33407133   
   2830000   284.16145      0              272.71065      524.27895      0.19445459   
   2840000   281.12223      0              248.26697      497.14464     -0.36908176   
   2850000   289.91875      0              253.7933       510.45854     -0.057773429  
   2860000   299.02669      0              270.07715      534.80565     -0.22604822   
   2870000   281.95188      0              261.01842      510.63058     -1.4803409    
   2880000   296.32294      0              250.59594      512.93081      0.37186815   
   2890000   320.42361      0              267.55987      551.23108     -0.21684934   
   2900000   316.70334      0              268.41686      548.79451      1.2975211    
   2910000   293.61632      0              253.74257      513.68127     -0.025339618  
   2920000   326.12013      0              258.55163      547.26597     -2.016159     
   2930000   289.9543       0              271.32564      528.02236      0.43826471   
   2940000   294.52279      0              272.22366      532.96486      0.30159768   
   2950000   313.86029      0              269.62548      547.48618     -1.1334436    
   2960000   286.82311      0              259.08488      513.00955      0.46501161   
   2970000   282.59066      0              263.52777      513.70545     -0.33706428   
   2980000   300.64364      0              246.56168      512.72168      2.3162997    
   2990000   331.96447      0              280.67126      574.5596       0.074411662  
   3000000   312.19219      0              261.46335      537.84727      0.58026972   
   3010000   321.617        0              271.64684      556.37455     -0.75201804   
   3020000   300.9355       0              261.13528      527.55365      0.4857786    
   3030000   307.27671      0              262.35818      534.39043     -0.84543657   
   3040000   322.97941      0              271.82012      557.75397      0.5748161    
   3050000   305.63128      0              265.5797       536.15525     -0.66348755   
   3060000   291.86173      0              241.42588      499.81124     -1.3782631    
   3070000   303.28176      0              259.31504      527.81056     -1.9407083    
   3080000   299.42267      0              259.91489      524.99395     -0.76321963   
   3090000   309.52925      0              266.19475      540.22118      0.91571647   
   3100000   301.64519      0              262.89439      529.94105     -0.72633912   
   3110000   285.89038      0              252.73475      505.83367      0.29576586   
   3120000   301.305        0              275.17287      541.91836      0.2161156    
   3130000   271.65205      0              246.40105      486.89477     -0.45892677   
   3140000   307.80894      0              266.01715      538.52059     -1.137406     
   3150000   302.12492      0              269.28569      536.75706     -1.04022      
   3160000   301.94389      0              259.01859      526.32969      0.90079239   
   3170000   291.80799      0              263.02841      521.3662      -1.8245863    
   3180000   291.57868      0              249.78343      507.91821     -0.8300082    
   3190000   299.15864      0              277.43147      542.27679      0.7503734    
   3200000   287.61106      0              270.19609      524.81833      0.54961673   
   3210000   295.60224      0              262.25173      523.94857      1.666231     
   3220000   290.47229      0              248.67634      505.83163      0.3150402    
   3230000   301.80327      0              253.04599      520.2326      -0.79748576   
   3240000   318.71175      0              260.61998      542.77568      2.4593979    
   3250000   293.97392      0              251.15618      511.41146     -1.1606898    
   3260000   296.9167       0              253.45189      516.31241      0.18714955   
   3270000   307.81904      0              250.54368      523.05606     -0.54763795   
   3280000   322.68447      0              260.24605      545.9188      -0.55311342   
   3290000   281.18192      0              275.42046      524.35098      0.64953914   
   3300000   289.4921       0              270.09429      526.38182      0.79770267   
   3310000   289.62543      0              267.13156      523.53712     -1.0053606    
   3320000   318.82379      0              264.18512      546.44001     -0.017193127  
   3330000   289.76226      0              269.79187      526.31857     -1.3048347    
   3340000   295.84959      0              277.65891      539.57473      0.67824616   
   3350000   324.42521      0              248.59672      535.81055     -0.11139094   
   3360000   302.05666      0              269.73467      537.14561     -1.7530211    
   3370000   293.78954      0              238.21904      498.31109     -1.6367492    
   3380000   320.1623       0              250.76194      534.20181     -0.92737098   
   3390000   297.15892      0              267.60981      530.68477      0.15868887   
   3400000   278.13225      0              286.54164      532.77228     -0.38789773   
   3410000   322.26933      0              259.76173      545.06696     -0.67395435   
   3420000   296.50378      0              265.31187      527.80684     -0.32178002   
   3430000   294.94015      0              276.85782      537.96851      0.026136616  
   3440000   315.11161      0              260.72698      539.69547     -1.3747134    
   3450000   294.3823       0              274.63757      535.25439     -0.1560581    
   3460000   292.25604      0              263.46911      522.20355      0.18466938   
   3470000   287.21212      0              251.99479      506.26385      1.387243     
   3480000   287.91416      0              272.00913      526.8997      -1.5711876    
   3490000   313.36567      0              257.66432      535.08713      1.0378022    
   3500000   325.61788      0              268.69998      556.96967      0.64293703   
   3510000   282.24613      0              268.85339      518.72605     -0.72428195   
   3520000   295.75904      0              250.71301      512.54866     -0.71118645   
   3530000   285.74788      0              277.76132      530.73408      0.40452484   
   3540000   303.35928      0              262.09627      530.66042      1.4084233    
   3550000   278.75883      0              279.92545      526.7108      -0.75194826   
   3560000   311.6348       0              266.19463      542.0851      -0.65861153   
   3570000   282.63169      0              236.17289      486.38689      0.044950918  
   3580000   293.33527      0              264.84191      524.5318      -2.2639803    
   3590000   310.30781      0              256.72843      531.44412     -1.2403794    
   3600000   297.19181      0              248.50485      511.60893     -0.02392035   
   3610000   305.76189      0              243.46484      514.15602      0.53972437   
   3620000   294.52349      0              256.78503      517.52685      0.22568451   
   3630000   303.63095      0              265.4597       534.26436      0.78440777   
   3640000   296.09281      0              266.21944      528.35058      0.23596506   
   3650000   295.08569      0              262.56649      523.80602      1.1446279    
   3660000   315.69296      0              272.95699      552.44015      1.1194378    
   3670000   297.59057      0              277.11247      540.56958      0.83938411   
   3680000   303.01417      0              259.85117      528.1098       0.42171105   
   3690000   295.53209      0              267.03349      528.66823     -0.10013362   
   3700000   288.35522      0              265.32758      520.60863     -0.27935124   
   3710000   312.50932      0              268.07296      544.73765     -0.0076008844 
   3720000   302.1205       0              269.94589      537.41335      0.60388491   
   3730000   301.28592      0              270.19222      536.92082      0.17503298   
   3740000   285.50341      0              243.04001      495.79635      0.17883734   
   3750000   315.80572      0              261.11317      540.69615      0.38307611   
   3760000   316.24491      0              257.99956      537.97137      0.033183164  
   3770000   293.55611      0              295.18381      555.06921      0.2723782    
   3780000   311.86548      0              253.0041       529.09879     -0.13279781   
   3790000   274.57775      0              241.02833      484.11217     -0.62712956   
   3800000   303.34709      0              251.92934      520.48269     -0.85627906   
   3810000   310.35552      0              252.81837      527.5763       0.049770094  
   3820000   298.92271      0              262.2476       526.88405     -0.80161841   
   3830000   304.02878      0              258.62577      527.78263     -0.5558963    
   3840000   297.99341      0              262.71567      526.52941      0.63133187   
   3850000   309.51452      0              265.90409      539.91747     -0.73409938   
   3860000   305.79216      0              255.00055      525.71853      0.57654537   
   3870000   306.01796      0              254.79693      525.71481     -1.0171596    
   3880000   295.52303      0              251.32127      512.94797      1.0278692    
   3890000   306.89194      0              284.84256      556.53418     -0.18980309   
   3900000   316.04731      0              312.02744      591.8243      -1.633995     
   3910000   294.63695      0              266.38441      527.22667      0.49641379   
   3920000   294.85691      0              246.81176      507.84875      0.69901005   
   3930000   290.97193      0              271.90592      529.50354      0.46076755   
   3940000   288.63977      0              278.29062      533.82357      0.60130492   
   3950000   301.69347      0              263.07702      530.16643      0.077263919  
   3960000   296.74613      0              262.56301      525.27254     -0.83584814   
   3970000   291.68227      0              266.38583      524.61232      0.047505809  
   3980000   287.85895      0              282.66294      537.50464      0.25026557   
   3990000   303.36003      0              280.81202      549.37683     -0.85870384   
   4000000   297.80013      0              289.87846      553.52109     -0.82694431   
   4010000   290.46584      0              264.33958      521.48916      0.41265011   
   4020000   305.64477      0              250.46458      521.05208      1.1728471    
   4030000   303.94612      0              269.30343      538.38711     -0.46953391   
   4040000   293.96548      0              255.45936      515.70717     -0.91933389   
   4050000   290.67583      0              268.01795      525.35344     -1.0918015    
   4060000   312.03716      0              269.54864      545.79532     -0.13604147   
   4070000   303.12804      0              243.46064      511.82008      0.033559957  
   4080000   308.88142      0              265.47247      538.92537     -0.23037334   
   4090000   290.70897      0              270.57655      527.94138      1.6452541    
   4100000   289.02054      0              272.70392      528.57397      1.1293448    
   4110000   297.86446      0              260.13618      523.83576      0.37625445   
   4120000   294.38295      0              278.64351      539.26091      1.0340103    
   4130000   303.51458      0              272.49511      541.19675     -0.55858475   
   4140000   301.36357      0              261.44012      528.23746      0.98050985   
   4150000   294.76866      0              264.45189      525.41075      0.0084873785 
   4160000   297.21567      0              269.55846      532.68367     -0.69769767   
   4170000   275.55465      0              279.18982      523.13851      0.023055397  
   4180000   294.23734      0              262.16935      522.65784      0.52941164   
   4190000   305.9411       0              260.61047      531.46031     -0.77976918   
   4200000   302.08376      0              258.87236      526.30729      0.41577299   
   4210000   314.29597      0              270.6956       548.942       -0.37345977   
   4220000   312.75801      0              223.67454      500.55939     -1.3429459    
   4230000   284.81573      0              260.935        513.08254      1.0016023    
   4240000   300.09968      0              241.11878      506.79721      1.3739045    
   4250000   314.32979      0              256.63266      534.909       -0.15924353   
   4260000   288.54982      0              244.04098      499.49431      0.14580982   
   4270000   294.39325      0              266.64024      527.26675     -0.51741635   
   4280000   303.78393      0              282.88207      551.82216     -0.96851531   
   4290000   294.47399      0              265.74577      526.44376     -0.60764157   
   4300000   313.06334      0              259.15962      536.31478     -0.26693242   
   4310000   311.44374      0              265.29616      541.01748      0.61577597   
   4320000   305.68762      0              274.62241      545.24784      0.092405406  
   4330000   300.32384      0              264.18852      530.06539     -0.26112533   
   4340000   294.40803      0              282.19393      542.83353     -1.0354523    
   4350000   301.18481      0              258.24722      524.8863      -0.31246285   
   4360000   320.36657      0              258.54387      542.16459      0.076500693  
   4370000   302.21889      0              271.11664      538.6712      -0.074848361  
   4380000   286.76576      0              260.65684      514.53073     -0.43609032   
   4390000   310.92436      0              276.56301      551.82453      0.309375     
   4400000   328.6275       0              273.23951      564.17363     -0.15391432   
   4410000   306.17001      0              258.36445      529.41694      1.5271928    
   4420000   285.64989      0              255.18564      508.07166      1.279685     
   4430000   301.95585      0              280.31799      547.63968      1.0886147    
   4440000   297.60672      0              228.69295      492.16435     -0.29320408   
   4450000   284.99133      0              248.85628      501.15927      0.79132553   
   4460000   293.75535      0              265.40481      525.4666       0.91708527   
   4470000   289.65458      0              266.47905      522.91042      0.48090196   
   4480000   290.83956      0              235.51619      492.99662      0.16520944   
   4490000   293.53722      0              290.23515      550.10383      0.25208538   
   4500000   297.94481      0              265.48396      529.25468      1.7983255    
   4510000   277.91808      0              276.38365      522.42469     -1.8363472    
   4520000   312.4995       0              262.48927      539.14526     -0.0031789393 
   4530000   315.18903      0              249.39911      528.43614     -0.2581491    
   4540000   300.76711      0              251.1462       517.4155       0.72675227   
   4550000   319.15562      0              258.87351      541.42217     -0.89803092   
   4560000   303.34015      0              267.76087      536.30808      0.093427794  
   4570000   321.27968      0              259.31687      543.74596      0.053753648  
   4580000   319.80317      0              285.48808      568.61002     -0.29803726   
   4590000   310.42643      0              264.68018      539.50088     -0.53043632   
   4600000   323.99525      0              257.85067      544.68386     -0.62472175   
   4610000   316.78253      0              275.08185      555.52961      0.26393463   
   4620000   321.65645      0              232.46064      517.22328      0.99869687   
   4630000   313.00802      0              268.9204       546.02658     -0.53653271   
   4640000   316.14696      0              283.21297      563.09806     -1.8439548    
   4650000   327.53909      0              280.98683      570.95737      0.63526439   
   4660000   300.45433      0              272.57442      538.56681     -1.6812527    
   4670000   311.30027      0              278.79688      554.39119     -1.8039069    
   4680000   302.20159      0              287.16439      554.70363     -0.33789003   
   4690000   282.01642      0              245.55351      495.22281     -0.76349529   
   4700000   305.78589      0              264.14676      534.85919      2.0519517    
   4710000   317.56021      0              273.51668      554.65292     -0.59799757   
   4720000   292.82851      0              258.32819      517.56944     -1.2352073    
   4730000   312.38034      0              251.55513      528.10562      0.26727486   
   4740000   287.85923      0              273.52684      528.36879     -1.0975479    
   4750000   303.2336       0              228.39641      496.8493      -0.75067675   
   4760000   291.1959       0              271.45612      529.25203     -0.15251348   
   4770000   271.29511      0              241.72573      481.90344     -0.48798687   
   4780000   306.04444      0              254.91556      525.85688      0.16840173   
   4790000   304.95231      0              261.75388      531.72834     -1.7441718    
   4800000   316.19248      0              279.71662      559.64201      0.54405073   
   4810000   293.53225      0              263.8087       523.67298      0.92916902   
   4820000   311.99866      0              259.07763      535.29022     -0.82110953   
   4830000   288.68502      0              273.28222      528.85524      1.1915921    
   4840000   301.04183      0              269.13266      535.64517     -0.38810987   
   4850000   306.51265      0              274.98622      546.34205      0.81032963   
   4860000   327.20323      0              278.67144      568.34465     -0.21126909   
   4870000   296.58179      0              257.81945      520.38348     -0.82444442   
   4880000   315.03464      0              258.70172      537.60207      0.2073294    
   4890000   289.69849      0              256.3955       512.86573      0.80825074   
   4900000   292.97871      0              254.69988      514.0741      -0.49387087   
   4910000   276.70386      0              249.34369      494.30978     -0.19406234   
   4920000   331.56818      0              259.62389      553.16139      0.012300741  
   4930000   311.15273      0              262.31992      537.78361     -0.87685213   
   4940000   275.88974      0              269.07656      513.3219      -0.37234849   
   4950000   287.49185      0              270.93643      525.45313      1.5492148    
   4960000   293.79537      0              236.22885      496.32606      0.56669156   
   4970000   288.16203      0              257.6189       512.72892      0.50449614   
   4980000   282.80626      0              243.97134      494.33988      1.1943871    
   4990000   313.12828      0              241.68942      518.90207     -1.510301     
   5000000   319.88923      0              261.09737      544.2955      -0.76694153   
   5010000   281.24687      0              248.78544      497.77346      0.68195223   
   5020000   302.01279      0              259.72215      527.09425      0.026450643  
   5030000   306.1166       0              275.89801      546.90322     -0.21019292   
   5040000   287.37416      0              252.81289      507.22541      1.2785515    
   5050000   301.82768      0              266.97985      534.18808     -0.10564225   
   5060000   287.23395      0              272.94935      527.23773      0.26219266   
   5070000   303.339        0              280.55525      549.10144     -0.11869024   
   5080000   294.77105      0              272.9953       533.95628     -1.1724373    
   5090000   291.68886      0              272.90496      531.13727     -0.66404266   
   5100000   301.90855      0              269.66747      536.94729      0.74259706   
   5110000   314.38532      0              271.07072      549.39623      0.40487637   
   5120000   267.2792       0              278.48761      515.11004     -0.43908009   
   5130000   264.81942      0              274.15612      508.60091     -1.5158854    
   5140000   283.14272      0              270.53329      521.1997       1.6971912    
   5150000   304.38582      0              264.91941      534.39235     -0.90259193   
   5160000   294.8408       0              274.56871      535.59144     -0.051642739  
   5170000   293.03767      0              256.45458      515.881        1.1892211    
   5180000   292.99284      0              258.34829      517.73502      0.34620976   
   5190000   306.8995       0              257.728        529.42631      1.1280357    
   5200000   276.04278      0              267.21228      511.59312     -2.2191264    
   5210000   296.35612      0              261.32439      523.68864      0.1848164    
   5220000   315.07447      0              250.99525      529.93086     -0.23093061   
   5230000   291.11277      0              247.62347      505.34577      0.012839543  
   5240000   284.05614      0              246.47043      497.9455      -0.44623822   
   5250000   292.12986      0              249.95332      508.57605      0.28654192   
   5260000   316.30037      0              271.45144      551.47234     -2.9126104    
   5270000   291.7813       0              274.47468      532.78883     -1.024012     
   5280000   303.83164      0              279.55739      548.53972     -0.13839056   
   5290000   300.08965      0              269.13321      534.80275      0.56979188   
   5300000   317.191        0              267.57596      548.38533      0.12396578   
   5310000   300.23574      0              243.22262      509.0215       0.61326057   
   5320000   296.6185       0              281.42784      544.02437     -0.33299921   
   5330000   269.76988      0              256.79206      495.61949     -0.16914405   
   5340000   291.73801      0              233.4746       491.75043     -1.390111     
   5350000   285.41553      0              259.33529      512.01382     -0.51344787   
   5360000   294.64335      0              294.19847      555.0464      -0.95940827   
   5370000   311.20764      0              275.88389      551.39619      0.047450309  
   5380000   311.4709       0              265.11413      540.8595       0.25750633   
   5390000   324.177        0              285.18147      572.17555      0.044362269  
   5400000   286.88718      0              278.84506      532.82645     -0.1123493    
   5410000   301.3278       0              238.32403      505.0897       0.1000882    
   5420000   311.87351      0              226.37752      502.47932      0.50616548   
   5430000   294.04134      0              256.17777      516.49274     -0.77730525   
   5440000   336.61211      0              232.84036      530.84325      1.7263061    
   5450000   273.69331      0              264.15539      506.45624     -1.0875235    
   5460000   306.54465      0              270.8351       542.21925     -0.92796075   
   5470000   302.33538      0              261.81238      529.47006      0.12316012   
   5480000   296.98104      0              269.19223      532.10971     -0.83247285   
   5490000   303.37402      0              268.85768      537.43487     -0.72775636   
   5500000   319.60592      0              263.79716      546.74446     -1.0393016    
   5510000   282.37752      0              263.92942      513.9184       0.12321415   
   5520000   295.26636      0              275.20534      536.60483     -0.025205969  
   5530000   316.36451      0              269.54465      549.62234     -0.76540867   
   5540000   299.07331      0              263.49515      528.26492      0.092238064  
   5550000   309.78965      0              276.60488      550.86184     -0.65187483   
   5560000   303.75027      0              258.09045      527.00074      1.2854458    
   5570000   293.15512      0              241.15479      500.68519     -0.12165548   
   5580000   311.42236      0              260.96922      536.67161      0.39343212   
   5590000   322.13884      0              291.68917      576.87887      0.76503907   
   5600000   293.11368      0              252.95886      512.45258      0.16001278   
   5610000   294.88129      0              235.69647      496.75505     -0.15424804   
   5620000   301.95968      0              265.63806      532.96314     -2.0717643    
   5630000   311.10721      0              283.10247      558.52586     -0.48082708   
   5640000   289.27103      0              246.73681      502.82862      0.70775198   
   5650000   287.572        0              281.32033      535.90799      0.63299567   
   5660000   306.40134      0              256.14617      527.40345     -0.57764162   
   5670000   299.13943      0              250.2266       515.05491     -0.42324341   
   5680000   279.30999      0              290.13009      537.40338      0.87316362   
   5690000   292.01293      0              264.23471      522.75393     -0.72244295   
   5700000   297.48166      0              269.6645       533.02519      1.5826741    
   5710000   299.61574      0              249.29583      514.54582      2.1733792    
   5720000   296.53392      0              257.31449      519.83614      1.4482485    
   5730000   318.47823      0              265.39413      547.34309     -0.875163     
   5740000   321.48515      0              253.50282      538.11381      0.011829568  
   5750000   302.72806      0              250.36256      518.36789      0.58135197   
   5760000   327.88331      0              244.87442      535.14971     -1.9447007    
   5770000   292.08486      0              252.11239      510.69529      1.6795933    
   5780000   305.00278      0              266.4395       536.45865      0.84072116   
   5790000   314.30456      0              245.09906      523.35307     -0.44251288   
   5800000   320.88801      0              278.49488      562.57723      0.96635757   
   5810000   293.16663      0              277.54483      537.08542     -0.43029061   
   5820000   293.87408      0              248.98108      509.14798     -1.4643147    
   5830000   302.56692      0              270.01128      537.87395     -1.5359894    
   5840000   293.2828       0              273.6851       533.32854     -0.17409556   
   5850000   296.32816      0              245.82439      508.16389      0.77224501   
   5860000   290.37771      0              267.47357      524.54512     -0.46489241   
   5870000   294.22588      0              273.83374      534.31208     -1.3468942    
   5880000   300.78584      0              265.19835      531.48422     -1.9849274    
   5890000   307.312        0              254.63795      526.70144      0.50664534   
   5900000   306.13372      0              267.85279      538.87315      0.46927832   
   5910000   287.97951      0              250.41641      505.36484      0.18785829   
   5920000   320.21511      0              266.83517      550.32179      1.6981189    
   5930000   308.02509      0              258.72491      531.41971      0.35181657   
   5940000   287.34987      0              273.78458      528.17559     -0.49860146   
   5950000   305.18771      0              265.98108      536.16394     -0.11698457   
   5960000   320.31175      0              263.61227      547.18445     -0.81405837   
   5970000   273.70441      0              264.90503      507.21571     -0.013184464  
   5980000   301.56907      0              252.38637      519.36564     -1.0483527    
   5990000   284.04574      0              264.19875      515.66461      0.94319698   
   6000000   281.0752       0              280.20483      529.04088      0.31350457   
   6010000   315.41711      0              257.78823      537.02718      0.54940779   
   6020000   282.70127      0              282.48698      532.76258     -0.17743361   
   6030000   297.51718      0              265.89845      529.29058      0.55116234   
   6040000   321.22499      0              257.90671      542.28738      0.65279885   
   6050000   293.83987      0              258.34886      518.48547      0.69087024   
   6060000   292.23317      0              267.49959      526.21379      0.11912532   
   6070000   311.0177       0              261.66346      537.00761      1.3789698    
   6080000   287.28882      0              256.87245      511.20941      1.9001562    
   6090000   320.61075      0              243.24381      527.08069      0.80476044   
   6100000   298.81122      0              276.69582      541.23356     -0.36355989   
   6110000   299.12256      0              264.63428      529.44766      0.24246914   
   6120000   307.48709      0              250.148        522.3665      -0.44458478   
   6130000   288.39021      0              284.61547      539.92749      0.77069145   
   6140000   293.83233      0              256.74712      516.87706     -0.048728802  
   6150000   316.72575      0              261.56557      541.96306     -1.0763605    
   6160000   306.65028      0              261.49885      532.97653     -0.9561944    
   6170000   294.18185      0              253.87998      514.31935     -1.1259772    
   6180000   297.99613      0              276.98357      540.79972      0.18941718   
   6190000   295.65489      0              299.84394      561.58739     -1.4855353    
   6200000   295.42712      0              259.11534      520.65714      1.0724243    
   6210000   298.29044      0              269.56501      533.64172      0.038453816  
   6220000   298.33503      0              279.09721      543.21338     -0.28722134   
   6230000   322.76528      0              272.35361      558.0979      -0.5814751    
   6240000   302.88501      0              235.14474      503.28901      0.60515803   
   6250000   311.16174      0              248.50947      523.98114      0.89372619   
   6260000   306.22501      0              269.72085      540.82202      0.42391395   
   6270000   313.86145      0              264.86989      542.73161      0.26930421   
   6280000   290.5256       0              249.97876      507.18124     -1.1229398    
   6290000   288.41774      0              254.07233      509.40872     -0.95838677   
   6300000   328.50381      0              263.08876      553.91338     -0.82471539   
   6310000   302.94871      0              269.66677      537.86744      0.60541131   
   6320000   298.50633      0              255.00461      519.27244      1.3451388    
   6330000   313.92722      0              260.18764      538.10759      0.17193096   
   6340000   280.55906      0              263.19716      511.57626     -2.2631856    
   6350000   337.33271      0              231.99445      530.6353       0.9475661    
   6360000   312.91551      0              271.519        548.54329      0.29238006   
   6370000   305.14436      0              267.45449      537.59897     -0.63425959   
   6380000   303.52013      0              240.03874      508.74529      0.51518013   
   6390000   287.50226      0              256.33085      510.85677      1.3589408    
   6400000   299.43019      0              263.55548      528.6412      -0.78121971   
   6410000   300.72625      0              256.96809      523.20122     -0.45163273   
   6420000   322.27813      0              254.892        540.20502      0.43078173   
   6430000   341.37427      0              265.78169      568.00053     -0.84714598   
   6440000   324.11236      0              259.685        546.62186      1.7638464    
   6450000   312.78493      0              270.00777      546.91645      0.13970033   
   6460000   272.29453      0              265.07989      506.14239      0.3836791    
   6470000   281.70841      0              273.41595      522.81258     -0.36284446   
   6480000   314.47794      0              279.94336      558.35086     -0.98081633   
   6490000   301.24793      0              269.52373      536.2187      -0.81210093   
   6500000   299.78569      0              257.6238       523.02425      0.10903867   
   6510000   303.86223      0              267.531        536.54041      1.9894438    
   6520000   280.79343      0              264.8105       513.39709      0.50909385   
   6530000   281.7413       0              274.74109      524.16683     -1.2474389    
   6540000   302.10001      0              267.53851      534.98783      1.6427918    
   6550000   319.96714      0              260.43855      543.70565     -0.28637926   
   6560000   264.02042      0              270.03872      503.77616      0.003795781  
   6570000   285.40279      0              257.84174      510.509        0.79153535   
   6580000   291.50708      0              264.94723      523.01862     -0.32121964   
   6590000   275.53775      0              264.10278      508.03651      0.90458598   
   6600000   298.76875      0              258.84265      523.3428       0.4869422    
   6610000   305.41062      0              251.96713      522.34733      0.32451578   
   6620000   257.8029       0              251.29898      479.53204      0.91882986   
   6630000   279.86264      0              243.89144      491.654       -0.32395471   
   6640000   332.07981      0              277.95031      571.94076     -0.24260942   
   6650000   301.22059      0              270.22882      536.89958     -2.7378627    
   6660000   307.4513       0              245.18276      517.36958     -1.0006184    
   6670000   312.69748      0              276.86847      553.69973      1.5012466    
   6680000   274.47738      0              270.91883      513.91381     -1.5276943    
   6690000   315.34462      0              263.80671      542.98149     -1.9630803    
   6700000   306.22812      0              267.18205      538.28598     -0.45162427   
   6710000   295.89586      0              269.01397      530.97074      0.28832917   
   6720000   281.53066      0              265.30879      514.54805      1.1936093    
   6730000   303.68754      0              266.25545      535.1102      -0.41682526   
   6740000   307.12395      0              276.46285      548.35986     -0.018985738  
   6750000   328.31661      0              274.9245       565.58339      0.17683402   
   6760000   300.31829      0              275.97656      541.84852      0.81328802   
   6770000   300.44278      0              249.64387      515.62604      1.4199965    
   6780000   299.06624      0              242.23592      506.99943     -0.90322736   
   6790000   294.0049       0              249.58076      509.86347     -0.53676842   
   6800000   292.44486      0              279.57889      538.4805      -0.70456573   
   6810000   317.60936      0              281.52688      562.70664     -0.7799888    
   6820000   292.30371      0              266.89677      525.67341     -2.2778829    
   6830000   290.46575      0              248.99292      506.14242      0.012463422  
   6840000   299.55675      0              255.21495      520.41272      0.34967871   
   6850000   309.00881      0              269.61502      543.1807       0.55517998   
   6860000   299.01478      0              251.24022      515.95818      2.012399     
   6870000   301.67226      0              268.38869      535.45932      0.22176025   
   6880000   281.14953      0              276.43847      525.34032     -0.79759445   
   6890000   314.54357      0              240.46663      518.93223      0.29237578   
   6900000   298.25816      0              283.08208      547.1302       0.40526452   
   6910000   279.63229      0              259.84435      507.40298      0.31736872   
   6920000   310.01864      0              248.04415      522.50383     -1.1647518    
   6930000   330.26655      0              251.26339      543.64856      0.92537545   
   6940000   259.14016      0              268.27867      497.69561     -1.4323256    
   6950000   284.83495      0              263.10563      515.27018     -0.37687624   
   6960000   324.40034      0              244.77658      531.96839      0.35621317   
   6970000   297.22293      0              263.04779      526.17942      0.24580898   
   6980000   265.9736       0              260.12418      495.59077     -1.2722114    
   6990000   294.56048      0              260.18612      520.96069     -0.84848418   
   7000000   281.92491      0              269.60053      519.18881     -0.4659722    
   7010000   332.53174      0              280.97735      575.36789     -1.1749059    
   7020000   289.6987       0              279.41352      535.88395     -0.85495772   
   7030000   319.77577      0              274.94618      558.04385      0.3725289    
   7040000   306.48822      0              270.05126      541.38546      1.0048986    
   7050000   328.39088      0              244.7178       535.44244      0.42540907   
   7060000   277.17612      0              258.04636      503.43054      1.3761001    
   7070000   299.23674      0              287.2482       552.16266     -1.1628178    
   7080000   311.45132      0              247.76089      523.48893      0.16217526   
   7090000   322.42375      0              262.47934      547.92127     -1.1340942    
   7100000   293.84107      0              266.59432      526.732       -0.69758255   
   7110000   314.76467      0              266.78409      545.44543      1.4299556    
   7120000   304.30477      0              287.71982      557.121        0.70474773   
   7130000   291.58329      0              273.43357      531.57242     -0.14318552   
   7140000   288.7229       0              269.10279      524.70934     -1.1617268    
   7150000   323.57964      0              265.90415      552.36939      1.2905375    
   7160000   291.04737      0              252.70666      510.37106      3.4546407    
   7170000   311.05287      0              251.26096      526.63625     -1.2350488    
   7180000   297.24683      0              225.31411      488.4669      -0.42014508   
   7190000   320.8443       0              287.24154      571.28518     -0.95024466   
   7200000   325.88239      0              250.84149      539.34536     -0.69813745   
   7210000   300.28834      0              267.92676      533.77221      0.60300588   
   7220000   302.51228      0              296.88636      564.70066      0.64081695   
   7230000   302.54629      0              268.28888      536.13329      0.051234676  
   7240000   283.5558       0              263.78111      514.81323      0.91611037   
   7250000   304.78407      0              263.67794      533.50346      0.16337188   
   7260000   281.83039      0              274.19027      523.69488     -1.1676766    
   7270000   299.68658      0              266.88231      532.19501      0.62639626   
   7280000   299.14427      0              243.91108      508.74368      0.12829386   
   7290000   311.54199      0              276.62296      552.43126     -1.507154     
   7300000   320.44982      0              283.98658      567.681        0.066158656  
   7310000   305.23684      0              265.22685      535.4532       0.038214216  
   7320000   293.01114      0              256.55235      515.95528     -0.61044056   
   7330000   330.04512      0              275.5096       567.69874     -0.49303751   
   7340000   287.71929      0              248.20092      502.91897     -0.26843255   
   7350000   287.48937      0              279.5683       534.0828      -1.3289845    
   7360000   295.12689      0              262.23502      523.51103     -0.16009287   
   7370000   307.63643      0              262.38671      534.73743      0.77088769   
   7380000   306.10204      0              253.01782      524.01014     -0.56568266   
   7390000   297.2886       0              248.29736      511.48713      1.8337825    
   7400000   301.50549      0              257.22378      524.14676     -1.4293586    
   7410000   273.26309      0              260.63828      502.55825     -1.9313715    
   7420000   322.46683      0              261.24303      546.7231      -0.54271865   
   7430000   294.48896      0              272.61747      533.32872      0.44400928   
   7440000   286.33452      0              286.00895      539.50107      1.4277866    
   7450000   312.7746       0              259.43283      536.33236     -0.6165936    
   7460000   301.03504      0              261.66757      528.17407      0.018435769  
   7470000   331.05654      0              258.16288      551.24743     -0.42411466   
   7480000   294.69833      0              258.25775      519.15435     -1.6241095    
   7490000   289.30397      0              259.0366       515.15757     -0.36867131   
   7500000   287.84967      0              288.23122      543.06469      0.36606152   
   7510000   299.95011      0              264.15345      529.69946     -1.4039141    
   7520000   278.64931      0              258.82088      505.50927      1.361961     
   7530000   312.76147      0              258.79792      535.68584     -0.70526959   
   7540000   317.19107      0              257.84129      538.65073      0.025689551  
   7550000   282.5087       0              275.18123      525.28635     -1.2161991    
   7560000   286.95518      0              257.81596      511.85755     -0.99123803   
   7570000   340.48978      0              258.90861      560.34441      0.80017004   
   7580000   303.31757      0              271.18789      539.71511      2.1209344    
   7590000   286.94539      0              255.66772      509.70065      2.3262092    
   7600000   288.71824      0              245.49806      501.10048     -0.80895795   
   7610000   291.09009      0              265.58226      523.28448      0.60401536   
   7620000   303.86737      0              282.01824      551.0322       2.0156446    
   7630000   312.60241      0              248.58653      525.33362      0.78147777   
   7640000   284.74537      0              270.91316      522.99841      0.20457769   
   7650000   317.95945      0              241.56877      523.05846      0.8978676    
   7660000   299.22547      0              273.99846      538.90294     -0.67992894   
   7670000   312.79261      0              249.3519       526.26739      0.35771891   
   7680000   294.45413      0              261.63266      522.31307      0.45992405   
   7690000   310.3596       0              266.63231      541.39385     -1.5989837    
   7700000   275.38788      0              284.8243       528.62535     -0.18722224   
   7710000   303.56466      0              253.13822      521.88419      0.89292861   
   7720000   290.7345       0              246.53172      503.91914      1.6986936    
   7730000   299.36677      0              247.16093      512.19051     -1.6395568    
   7740000   302.86291      0              253.3704       521.49511      0.53204178   
   7750000   274.34189      0              267.48914      510.36418      0.33958829   
   7760000   286.9989       0              278.93275      533.01304     -0.98496458   
   7770000   296.80755      0              248.45291      511.21681     -0.30335604   
   7780000   302.53246      0              245.00004      512.8322       0.14369875   
   7790000   329.90196      0              260.22612      552.28852     -0.66404503   
   7800000   287.84449      0              263.764        518.5929      -1.1640507    
   7810000   285.72121      0              268.38108      521.33023     -2.6640189    
   7820000   297.00224      0              258.18502      521.12128      0.047086382  
   7830000   318.91452      0              258.80172      541.13694     -0.49508977   
   7840000   299.26766      0              270.68504      535.62687     -1.1160503    
   7850000   310.2274       0              279.14927      553.79376      1.1512744    
   7860000   289.20557      0              254.88328      510.91715      0.8767955    
   7870000   291.73705      0              252.09547      510.37046     -0.93845384   
   7880000   287.85828      0              249.86269      504.7038       1.216738     
   7890000   307.55616      0              271.47253      543.75218      1.2045621    
   7900000   302.56485      0              284.03342      551.89426      0.93897587   
   7910000   307.84578      0              255.1579       527.69395      0.89516157   
   7920000   300.87883      0              276.21578      542.58398     -0.93494156   
   7930000   325.4137       0              276.36837      564.45731      2.283934     
   7940000   291.4575       0              285.65136      543.67885     -0.25899095   
   7950000   323.63412      0              272.96246      559.47594     -0.55699231   
   7960000   316.7765       0              255.71436      536.15679     -1.0004259    
   7970000   290.83453      0              288.48043      545.95641      2.5692114    
   7980000   299.79796      0              270.77598      536.18729      0.3729279    
   7990000   304.7453       0              279.90626      549.69745      1.2360438    
   8000000   293.82045      0              291.32436      551.44378     -0.6197084    
   8010000   291.01641      0              269.28         526.917       -0.78427164   
   8020000   295.42276      0              243.07765      504.6156       0.43879896   
   8030000   329.7477       0              271.32294      563.24878     -1.1207175    
   8040000   315.30456      0              263.07915      542.21846     -1.8007561    
   8050000   296.93093      0              271.59971      534.47283      0.88466038   
   8060000   288.23573      0              273.02738      528.20264     -0.84349383   
   8070000   291.66588      0              266.76958      524.98156      1.0059883    
   8080000   292.30135      0              263.30045      522.07501      1.2480629    
   8090000   298.49562      0              245.55187      509.81021      0.5195268    
   8100000   277.68656      0              271.90256      517.73863     -0.5005123    
   8110000   316.51753      0              250.01282      530.22597      1.390961     
   8120000   309.9856       0              237.29024      511.72068      0.23282831   
   8130000   296.42233      0              244.26272      506.68559      0.15613379   
   8140000   286.16949      0              270.64691      523.99292     -0.18999569   
   8150000   293.66695      0              249.50541      509.48893      0.14227165   
   8160000   291.31455      0              248.46829      506.36923      0.93561263   
   8170000   320.47347      0              269.63164      553.34698     -0.29855818   
   8180000   291.28708      0              256.00543      513.88205     -0.74824692   
   8190000   304.13257      0              293.9088       563.15754     -0.6033934    
   8200000   320.09857      0              264.65283      548.03628     -0.76668015   
   8210000   289.72315      0              275.07078      531.56286     -1.3079287    
   8220000   291.56605      0              273.70651      531.8301      -0.24696818   
   8230000   284.77692      0              255.81867      507.93184     -0.60792773   
   8240000   304.5904       0              267.37687      537.03093      1.3054064    
   8250000   300.50293      0              267.47672      533.51214      0.56417407   
   8260000   321.30792      0              252.42135      536.87544     -1.8306648    
   8270000   298.78476      0              256.10061      520.61493     -0.68237188   
   8280000   288.61667      0              258.72111      514.23362      0.23718715   
   8290000   281.58134      0              247.17093      496.45506      0.91906084   
   8300000   306.48933      0              263.97705      535.31224      2.1152677    
   8310000   283.37175      0              251.22697      502.09615      0.52148406   
   8320000   322.90252      0              270.10086      555.96665     -1.3185785    
   8330000   306.05512      0              261.97719      532.92796     -0.31945057   
   8340000   315.08009      0              257.84032      536.78091     -0.94384609   
   8350000   296.0388       0              257.19546      519.27878      0.71354235   
   8360000   313.01689      0              258.39068      535.50472     -1.4039824    
   8370000   289.32446      0              264.96109      521.10021     -1.1637454    
   8380000   310.42843      0              273.59678      548.41925     -0.84830988   
   8390000   301.0147       0              274.33464      540.82313      0.78245598   
   8400000   308.81331      0              280.43968      553.83229     -0.70413685   
   8410000   311.51707      0              253.20024      528.98648      0.95922769   
   8420000   298.73498      0              267.97956      532.44982     -2.1237464    
   8430000   302.58507      0              254.93269      522.81143      0.47001284   
   8440000   283.57323      0              260.47635      511.52389      0.016161933  
   8450000   318.54252      0              272.26672      554.27259      0.40925027   
   8460000   311.08662      0              264.64461      540.04978     -0.58626948   
   8470000   302.96955      0              251.7546       519.97372      0.26604277   
   8480000   300.44782      0              278.31574      544.30238     -0.3518418    
   8490000   312.76536      0              272.44486      549.33621      0.54532362   
   8500000   299.64361      0              260.46507      525.73973     -1.0606401    
   8510000   302.95511      0              259.20418      527.41051      0.30425377   
   8520000   305.67542      0              276.45198      547.06661      1.9151572    
   8530000   316.44338      0              242.7865       522.93401      0.58417367   
   8540000   290.24956      0              266.80379      523.76189      2.1705331    
   8550000   303.30204      0              261.91033      530.4238      -0.95066929   
   8560000   281.99363      0              272.81518      522.46431      0.46970706   
   8570000   294.8418       0              270.7819       531.80552      0.52271369   
   8580000   285.40053      0              260.03058      512.69584     -0.43992786   
   8590000   324.5625       0              242.69917      530.03454      0.6634362    
   8600000   294.08587      0              285.23589      545.59029      0.098583447  
   8610000   295.36939      0              264.66997      526.16067      0.81047208   
   8620000   294.80542      0              248.82107      509.81249     -1.0082841    
   8630000   298.19991      0              267.72907      531.72562     -0.77671465   
   8640000   290.71573      0              261.82212      519.19292      1.2984051    
   8650000   309.36571      0              262.02298      535.90462      0.3543765    
   8660000   299.44885      0              260.75063      525.85288     -0.93346447   
   8670000   307.18714      0              248.56586      520.51882     -1.2552751    
   8680000   307.17315      0              270.13375      542.07432      1.0646541    
   8690000   301.62703      0              242.65543      509.68602      1.3112574    
   8700000   314.94633      0              284.55654      563.37871     -1.5206975    
   8710000   314.51263      0              244.30906      522.74728     -0.80145613   
   8720000   307.23914      0              262.14811      534.1471       1.8530649    
   8730000   263.30816      0              253.85557      486.96244      0.15290124   
   8740000   313.73692      0              267.63065      545.38213     -0.98751218   
   8750000   300.78845      0              263.81725      530.10544     -1.5609005    
   8760000   315.53699      0              256.74563      536.09071     -0.33954515   
   8770000   277.87818      0              251.23433      497.24005      0.62980331   
   8780000   289.5959       0              260.40205      516.78146     -0.45304875   
   8790000   311.47505      0              252.15081      527.89985     -0.90191238   
   8800000   304.69655      0              259.0475       528.79554     -0.065113795  
   8810000   282.27162      0              269.02599      518.92122      0.097783991  
   8820000   309.91826      0              287.8658       562.23661     -0.35652518   
   8830000   292.22306      0              273.84561      532.55085     -1.2792953    
   8840000   308.75949      0              271.03646      544.38141     -1.2721835    
   8850000   308.29444      0              276.31316      549.24641     -0.45040374   
   8860000   327.63155      0              245.46173      535.51413      0.47079187   
   8870000   281.15227      0              273.94775      522.85203     -1.5753017    
   8880000   304.71387      0              261.11138      530.87475      0.37233013   
   8890000   296.1676       0              263.25887      525.45622      0.046424944  
   8900000   275.60416      0              251.20112      495.19364      0.042458401  
   8910000   297.78844      0              287.05741      550.68969      0.72527008   
   8920000   293.04176      0              251.9922       511.42224      0.062312005  
   8930000   291.5422       0              254.74721      512.84969     -1.4840357    
   8940000   281.60449      0              261.76453      511.06915     -1.3580503    
   8950000   302.26099      0              263.91053      531.50236     -0.080299024  
   8960000   271.86901      0              261.69194      502.37774      0.07751289   
   8970000   329.06552      0              252.04845      543.37035     -1.014389     
   8980000   297.94897      0              278.18796      541.96235      1.472112     
   8990000   310.04376      0              277.55451      552.03643     -0.51815401   
   9000000   288.20206      0              269.43624      524.58169      0.018343496  
   9010000   297.61825      0              279.36097      542.84258      0.78877977   
   9020000   288.5409       0              258.17362      513.61904      0.67729227   
   9030000   301.3627       0              247.30077      514.09734     -0.42229899   
   9040000   277.49615      0              277.79965      523.46716      1.2478226    
   9050000   316.01496      0              265.15987      544.9281      -1.2878364    
   9060000   317.10224      0              252.91665      533.64745      0.19937108   
   9070000   299.54849      0              266.17195      531.3624       1.0885516    
   9080000   319.63198      0              254.70731      537.67768      0.083641917  
   9090000   308.51928      0              266.73712      539.86942      0.2287243    
   9100000   298.67245      0              258.11161      522.5265      -1.0925105    
   9110000   302.36094      0              280.15119      547.8315      -0.04399993   
   9120000   309.3095       0              270.4386       544.27048      0.31927556   
   9130000   314.5156       0              261.63289      540.07373     -1.0711014    
   9140000   288.5608       0              257.19859      512.66164      0.77609804   
   9150000   314.29369      0              258.19704      536.44142      1.6497368    
   9160000   283.85192      0              263.96663      515.26091     -0.2719825    
   9170000   311.54845      0              255.25782      531.07184     -1.0259896    
   9180000   322.0686       0              266.08365      551.21117     -1.7060368    
   9190000   308.18774      0              270.55467      543.39346     -1.4390247    
   9200000   325.56357      0              269.79303      558.01465     -0.81280565   
   9210000   300.34958      0              262.05102      527.95069     -0.6903704    
   9220000   297.32258      0              270.9591       534.17895     -2.1785855    
   9230000   299.71739      0              253.88324      519.22322     -0.43385387   
   9240000   306.00377      0              262.31494      533.22026      2.0542637    
   9250000   315.67166      0              275.71006      555.17436     -0.19187593   
   9260000   283.85833      0              246.69139      497.99133     -0.52519692   
   9270000   306.4319       0              263.58414      534.86848      0.28979472   
   9280000   281.65011      0              257.95556      507.30057      0.044014655  
   9290000   283.56977      0              265.60627      516.65075      0.70729337   
   9300000   292.01656      0              281.94561      540.46805      0.31509389   
   9310000   272.67113      0              259.02026      500.41617     -1.689006     
   9320000   312.3845       0              262.42652      538.9807       0.072512291  
   9330000   304.94843      0              252.8627       522.83373      0.11032508   
   9340000   304.51399      0              280.20077      549.78718      0.20093992   
   9350000   296.27491      0              273.22082      535.51317      0.73932068   
   9360000   279.15301      0              256.93068      504.065        0.68856978   
   9370000   293.91233      0              273.9978       534.19856      0.74952304   
   9380000   287.94842      0              275.97393      530.89484      2.320368     
   9390000   284.20919      0              255.75477      507.36532     -0.45830824   
   9400000   293.47507      0              263.71499      523.52864      0.26309162   
   9410000   298.36148      0              246.54051      510.68011     -0.074901406  
   9420000   281.2261       0              269.3144       518.28403      0.71100485   
   9430000   310.48825      0              258.76969      533.64512     -1.9615308    
   9440000   304.13116      0              253.7769       523.02439     -1.3893705    
   9450000   280.30149      0              242.14094      490.29202      0.67873186   
   9460000   289.02669      0              282.92898      538.80448     -1.6467579    
   9470000   327.04322      0              284.16958      573.70113      0.68632067   
   9480000   291.26089      0              288.36442      546.21785      0.89408655   
   9490000   297.78808      0              280.76955      544.40151      1.080242     
   9500000   280.68884      0              258.2039       506.6979      -1.2112881    
   9510000   291.66413      0              263.59151      521.80193      1.4374734    
   9520000   314.31783      0              271.40678      549.67254      0.73187155   
   9530000   297.96408      0              260.78735      524.57513     -0.10392894   
   9540000   299.23091      0              235.20587      500.11517     -0.28139015   
   9550000   270.23119      0              271.26694      510.50277      0.0095273488 
   9560000   301.21569      0              276.13405      542.80048     -0.31349474   
   9570000   312.2521       0              275.32253      551.75949     -1.0693967    
   9580000   275.63145      0              263.52781      507.54449      0.28491904   
   9590000   298.26641      0              282.08761      546.14304      1.4837154    
   9600000   300.56128      0              272.84809      538.93517      1.5626327    
   9610000   299.9804       0              267.85939      533.43221     -0.14425516   
   9620000   312.26523      0              278.05532      554.50391      0.17424159   
   9630000   300.4306       0              261.56468      527.53607      1.590997     
   9640000   309.64616      0              253.07069      527.20062      0.99413428   
   9650000   314.37715      0              250.06786      528.38613      0.75431134   
   9660000   294.27138      0              255.00477      515.52339      0.27402423   
   9670000   297.86925      0              248.18595      511.88977      0.51897287   
   9680000   311.54743      0              254.20919      530.02232     -0.33969825   
   9690000   299.01075      0              256.76694      521.48134      0.20652973   
   9700000   314.16997      0              260.68038      538.81524      1.2880569    
   9710000   332.41791      0              257.22725      551.51702      0.32830175   
   9720000   325.97972      0              255.70316      544.2932       2.1330385    
   9730000   286.58008      0              250.54869      504.2582       0.93397306   
   9740000   306.66895      0              275.40957      546.90377      2.5829107    
   9750000   311.54176      0              247.13749      522.94559      0.88845724   
   9760000   291.13303      0              260.85905      518.59929      0.38707927   
   9770000   305.83113      0              278.441        549.19348      2.8268898    
   9780000   300.13613      0              266.00779      531.71848      0.14752282   
   9790000   319.23819      0              280.14279      562.76454      1.0102863    
   9800000   286.85922      0              266.61248      520.56912     -1.0582019    
   9810000   298.646        0              274.30458      538.69606     -1.7400113    
   9820000   299.57575      0              277.6978       542.91238      1.3173861    
   9830000   294.08283      0              233.82224      494.17395     -0.074824949  
   9840000   305.09706      0              258.01362      528.11623      1.2945214    
   9850000   305.10407      0              262.04608      532.15489     -0.56340152   
   9860000   272.9318       0              278.58185      520.20853     -1.0966425    
   9870000   318.49003      0              257.14894      539.10835      0.59589903   
   9880000   308.15846      0              263.33388      536.14675      1.1788275    
   9890000   286.99066      0              258.76657      512.83957      0.25066897   
   9900000   317.9123       0              271.57308      553.02103      0.35404796   
   9910000   303.28173      0              269.56997      538.06547     -0.39982317   
   9920000   326.01709      0              279.15635      567.77947      0.050755945  
   9930000   286.57951      0              259.49237      513.20138     -1.8207343    
   9940000   301.91348      0              260.35561      527.63979      0.79029602   
   9950000   279.70283      0              259.48787      507.10894      1.0653317    
   9960000   325.88877      0              272.9458       561.45532      0.46289942   
   9970000   311.72005      0              271.59313      547.55907      1.2879996    
   9980000   283.60664      0              266.94988      518.02701      0.00266801   
   9990000   273.64636      0              271.82607      514.08535     -0.78880614   
  10000000   297.28584      0              266.29602      529.48335      1.6427749    
  10010000   306.93487      0              268.68634      540.41596      0.13534991   
  10020000   290.50614      0              272.92809      530.11335      2.0983558    
  10030000   321.77325      0              279.43892      564.30497      0.44845192   
  10040000   309.27089      0              263.42036      537.21805      0.22743639   
  10050000   288.35637      0              250.13468      505.41675      1.3740028    
  10060000   288.96817      0              262.10968      517.93336      0.17178413   
  10070000   299.14188      0              267.51983      532.35031      0.2049669    
  10080000   279.49716      0              253.2914       500.73039      0.24525224   
  10090000   303.24668      0              273.55027      542.01474     -0.94285353   
  10100000   304.1287       0              257.19638      526.44169     -0.22483284   
  10110000   288.35769      0              262.57966      517.86289     -0.034180288  
  10120000   300.8701       0              249.74941      516.10989      0.41384857   
  10130000   327.0652       0              272.64539      562.1964      -0.69476905   
  10140000   286.52844      0              281.31584      534.97964     -0.0093927873 
  10150000   304.5036       0              285.06955      554.64677      0.49383905   
  10160000   292.61581      0              278.66575      537.7187       0.59043366   
  10170000   291.65594      0              277.11062      535.31379     -0.59915253   
  10180000   304.49279      0              252.24451      521.81216     -0.19588725   
  10190000   299.15989      0              269.493        534.33942      1.5416124    
  10200000   301.86991      0              250.6954       517.94101     -0.73347132   
  10210000   295.42741      0              257.3085       518.85056     -1.1723152    
  10220000   285.69538      0              256.4922       509.41849     -1.3857296    
  10230000   293.15446      0              270.57646      530.10627     -1.2959388    
  10240000   281.41476      0              252.07288      501.20953     -0.92570334   
  10250000   284.02045      0              266.92691      518.37038     -0.7349434    
  10260000   297.23388      0              256.08795      519.22928      0.66450568   
  10270000   286.01074      0              254.15235      507.35783     -0.97584606   
  10280000   274.91053      0              253.73496      497.11341     -0.8914326    
  10290000   280.8078       0              243.52225      492.12156     -0.91180804   
  10300000   300.6323       0              229.41394      495.56389     -1.2396622    
  10310000   276.29812      0              270.04606      514.65295      0.21133907   
  10320000   288.92421      0              268.65173      524.4365      -1.0784421    
  10330000   306.73903      0              260.64038      532.19662      0.43405612   
  10340000   311.0349       0              263.1134       538.47277      0.067785484  
  10350000   327.60989      0              254.64061      544.67384     -1.5556102    
  10360000   314.6514       0              271.52706      550.08813     -0.47172813   
  10370000   302.53604      0              270.31147      538.1468       0.34789265   
  10380000   314.6958       0              287.44698      566.04736      0.73478811   
  10390000   320.57719      0              270.76366      554.57083      0.49648068   
  10400000   277.19263      0              265.48718      510.88598     -0.99637671   
  10410000   308.74338      0              261.97374      535.30443      0.17643279   
  10420000   308.44982      0              286.88983      559.96064     -1.4950187    
  10430000   304.9443       0              281.70008      551.66745      0.59668319   
  10440000   300.01135      0              282.07261      547.67283      1.7210852    
  10450000   287.44362      0              274.6399       529.1139      -0.074629863  
  10460000   317.31134      0              276.61564      557.53155      1.1025908    
  10470000   317.80262      0              259.10919      540.46004      2.0614858    
  10480000   294.40538      0              256.63958      517.27683     -0.39287246   
  10490000   285.3705       0              268.86458      521.50325      0.74170671   
  10500000   299.46465      0              260.50982      525.62605     -1.3616879    
  10510000   292.02233      0              270.46226      528.9898       0.82456713   
  10520000   295.64701      0              243.35448      505.09096     -1.2323142    
  10530000   298.05369      0              278.63958      542.50669      0.43518447   
  10540000   298.61636      0              273.28591      537.65115     -2.6032619    
  10550000   295.13199      0              270.10879      531.38931     -0.95773104   
  10560000   314.03632      0              257.82974      535.84628      0.080596967  
  10570000   326.47826      0              260.69273      549.72413     -0.24937122   
  10580000   304.37086      0              267.34029      536.79999     -0.32587419   
  10590000   306.87441      0              256.51719      528.19328     -1.6161588    
  10600000   308.12335      0              266.42036      539.20213      0.18147653   
  10610000   298.52904      0              271.61716      535.9051      -1.038799     
  10620000   281.05817      0              261.32007      510.14103      0.28168097   
  10630000   312.63222      0              257.93061      534.7041       0.46858649   
  10640000   284.78916      0              234.90312      487.02713      0.16743865   
  10650000   275.07345      0              252.47005      495.99273      1.3237805    
  10660000   305.20325      0              268.53632      538.73293     -1.217935     
  10670000   292.3223       0              273.79987      532.59298     -0.71983989   
  10680000   295.10044      0              288.68752      549.94012     -0.95038759   
  10690000   315.79934      0              272.11352      551.69086     -0.75516281   
  10700000   284.3543       0              236.89944      488.63846     -0.74668425   
  10710000   327.67143      0              258.11466      548.20238     -0.60576855   
  10720000   266.37766      0              242.42936      478.25365      0.88033995   
  10730000   303.22499      0              264.6716       533.11686     -0.22430255   
  10740000   310.43998      0              242.83012      517.66281      0.022323478  
  10750000   315.66902      0              266.78815      546.25013     -0.094724923  
  10760000   280.76598      0              263.2424       511.80469     -1.1523358    
  10770000   312.46561      0              233.17448      509.80046     -0.46239953   
  10780000   294.40724      0              283.92301      544.56191      1.0478773    
  10790000   305.49487      0              269.61885      540.07364     -0.17310136   
  10800000   338.03005      0              263.54276      562.80096      0.34576434   
  10810000   290.47052      0              261.36697      518.5207       1.4806117    
  10820000   308.99278      0              244.23158      517.78307      0.79034427   
  10830000   282.29884      0              278.49408      528.41341     -0.18419919   
  10840000   296.01224      0              276.09993      538.15974     -1.3483029    
  10850000   313.93055      0              257.44067      535.36357      0.17766674   
  10860000   310.23179      0              235.4366       510.08499      0.47032651   
  10870000   297.11616      0              265.18361      528.22072     -1.0842804    
  10880000   278.44378      0              237.46874      483.97518     -0.80896644   
  10890000   278.45569      0              255.83773      502.35471      1.9553202    
  10900000   320.26356      0              268.56829      552.09781     -1.4602804    
  10910000   301.6524       0              263.74466      530.7977       1.7736931    
  10920000   298.8126       0              265.39596      529.93493      0.73425682   
  10930000   297.42579      0              271.26061      534.57184     -0.2662747    
  10940000   317.17096      0              233.84436      514.636        0.35046297   
  10950000   282.46744      0              278.51473      528.58332     -1.4395971    
  10960000   312.42824      0              282.44134      559.03424      0.36561038   
  10970000   290.3451       0              272.55232      529.59501     -0.77688174   
  10980000   297.05033      0              267.44162      530.42045     -0.0544019    
  10990000   292.92914      0              259.0716       518.40194     -1.7251772    
  11000000   291.41671      0              259.44681      517.43819      0.56327079   
  11010000   272.97957      0              247.54586      489.21483     -0.11520729   
  11020000   315.06337      0              250.57327      529.49905     -0.99438057   
  11030000   313.64024      0              285.02879      562.69467     -0.63783039   
  11040000   307.42935      0              248.67567      520.84305     -0.64202013   
  11050000   289.73133      0              271.67704      528.17636     -0.21514624   
  11060000   311.56845      0              291.13642      566.96815      2.6735891    
  11070000   307.135        0              265.73116      537.63795     -1.4172591    
  11080000   275.44923      0              273.04263      516.89799      1.0227737    
  11090000   319.61522      0              258.33592      541.29146      0.37328123   
  11100000   292.56787      0              262.4682       521.4787       1.2971473    
  11110000   282.09895      0              267.40185      517.14422     -0.77380466   
  11120000   317.07819      0              276.2579       556.9674      -0.60948339   
  11130000   292.77193      0              270.62523      529.8164      -0.49151388   
  11140000   341.92616      0              268.02086      570.72828      0.87390457   
  11150000   299.55284      0              273.65926      538.85357      0.78144563   
  11160000   320.12064      0              290.90002      574.30301      0.7368272    
  11170000   295.95789      0              255.16958      517.18128     -1.8875684    
  11180000   319.83784      0              251.58549      534.73812     -1.3962974    
  11190000   333.77537      0              260.52442      556.01595      0.7869273    
  11200000   296.75063      0              267.34161      530.05512     -1.8278204    
  11210000   304.87887      0              265.20927      535.11871      1.4999186    
  11220000   318.42148      0              280.91756      562.81629      0.82400918   
  11230000   310.33095      0              282.27601      557.01218     -1.1151707    
  11240000   305.56322      0              280.22511      550.74041      0.24813307   
  11250000   278.1391       0              280.57324      526.80995     -1.5441313    
  11260000   281.09686      0              288.01217      536.86738     -0.083619739  
  11270000   314.86499      0              261.38699      540.13715      0.21816336   
  11280000   292.81772      0              278.18126      537.41296     -0.75875713   
  11290000   287.52647      0              263.20271      517.75006      0.094790521  
  11300000   286.99699      0              261.83928      515.91789      1.3767162    
  11310000   315.2323       0              263.33347      542.40881     -0.88149969   
  11320000   294.82897      0              275.74898      536.76124      0.42051215   
  11330000   306.40599      0              263.34386      534.60526     -0.86119922   
  11340000   323.45093      0              287.54592      573.89722      1.5921244    
  11350000   306.12147      0              266.73779      537.74731     -2.0182535    
  11360000   291.13167      0              259.63339      517.37243     -1.3320748    
  11370000   302.40698      0              235.3508       503.07188     -1.7313114    
  11380000   326.31491      0              255.7024       544.58918      1.4859795    
  11390000   292.56822      0              253.83765      512.84847     -0.4063771    
  11400000   283.50049      0              291.1765       542.15965      0.58633229   
  11410000   298.0062       0              278.78608      542.61115      0.72445583   
  11420000   282.84767      0              246.51217      496.91737      0.72687929   
  11430000   277.9574       0              261.49973      507.57558     -1.4700209    
  11440000   285.63542      0              259.90261      512.77582     -0.30133152   
  11450000   302.07429      0              278.08992      545.51647      1.4212172    
  11460000   280.75144      0              253.6152       502.16462      0.58396038   
  11470000   304.28624      0              279.46697      548.85175     -1.1044001    
  11480000   329.58192      0              266.2294       558.00847     -0.32247431   
  11490000   294.33108      0              257.4478       518.01928      0.49065324   
  11500000   316.99609      0              267.38126      548.01809     -0.81851302   
  11510000   315.26955      0              258.01837      537.12669      0.85625836   
  11520000   325.66103      0              247.85245      536.16035     -0.14605022   
  11530000   328.86456      0              281.36029      572.50428      0.17169402   
  11540000   311.84829      0              250.31006      526.38953      1.4673833    
  11550000   281.24623      0              282.45941      531.44686     -1.1534442    
  11560000   317.05195      0              267.10239      547.78867      0.201263     
  11570000   280.34319      0              265.5085       513.69649     -0.24282041   
  11580000   286.3946       0              273.34615      526.89145     -1.7465386    
  11590000   313.06676      0              260.67267      537.83086      0.65301789   
  11600000   283.09369      0              256.75621      507.37921      0.14349494   
  11610000   282.84639      0              287.36529      537.76937     -1.1646073    
  11620000   276.43331      0              267.18375      511.91033     -1.2767365    
  11630000   282.57671      0              272.11734      522.28267      0.62364349   
  11640000   294.15488      0              286.11458      546.53007      0.99124002   
  11650000   295.01354      0              267.66829      528.84395      0.52909561   
  11660000   288.05546      0              253.8522       508.86787      0.65589028   
  11670000   276.90712      0              277.25021      522.39624     -0.58194086   
  11680000   310.69051      0              263.7031       538.75759     -0.78623056   
  11690000   302.35463      0              249.34699      517.02172     -2.0344351    
  11700000   311.57134      0              271.34857      547.18285     -0.47276451   
  11710000   304.82922      0              241.08476      510.95025      0.73540617   
  11720000   314.51094      0              258.40306      536.83978      1.1247792    
  11730000   329.21956      0              265.05718      556.51545      0.16014084   
  11740000   300.04494      0              249.9886       515.61856      0.97208084   
  11750000   287.29914      0              281.48872      535.83482     -0.60764373   
  11760000   304.32513      0              244.54615      513.96537     -0.67757578   
  11770000   302.02092      0              276.47098      543.85028      0.93795396   
  11780000   298.76676      0              269.70069      534.19908      0.49847895   
  11790000   317.88801      0              271.96018      553.38662     -0.1344392    
  11800000   305.01473      0              267.85957      537.88929      0.31354981   
  11810000   308.35952      0              259.13081      532.12167     -0.59616221   
  11820000   294.41812      0              257.16736      517.8159      -0.92805496   
  11830000   280.1814       0              263.90655      511.95131     -0.36154366   
  11840000   316.11689      0              270.48028      550.33874     -0.25242422   
  11850000   296.10317      0              270.58187      532.72219     -0.28681218   
  11860000   290.75156      0              284.49829      541.90081      0.88214484   
  11870000   315.13537      0              276.93105      555.92058      0.89123417   
  11880000   304.89297      0              279.10682      549.02875     -0.71373664   
  11890000   307.96198      0              269.51019      542.14912      0.61612695   
  11900000   300.60697      0              278.76467      544.8922      -0.37721841   
  11910000   300.39323      0              270.58436      536.52266     -1.8523791    
  11920000   289.76833      0              270.50474      527.03682     -0.048246304  
  11930000   297.67851      0              252.1652       515.70016      0.640536     
  11940000   288.49746      0              260.56927      515.97624      0.49972365   
  11950000   276.46657      0              274.88441      519.64043     -0.30753191   
  11960000   301.19671      0              264.68785      531.33747      0.78467216   
  11970000   329.70502      0              271.85584      563.74389     -1.9516096    
  11980000   295.6113       0              260.39848      522.10334      0.3197248    
  11990000   315.90771      0              266.07078      545.74406     -2.0521609    
  12000000   316.21065      0              261.04393      540.9854      -1.0677745    
  12010000   287.50656      0              292.50214      547.03187     -0.80235383   
  12020000   286.69752      0              275.39201      529.2055      -0.12582301   
  12030000   297.87589      0              245.49804      509.20774      1.073296     
  12040000   294.66555      0              299.68982      560.5574      -0.65113491   
  12050000   293.0444       0              263.94124      523.37361     -0.85044105   
  12060000   296.83241      0              270.0199       532.80581     -0.91237871   
  12070000   262.62769      0              257.63241      490.13685     -0.77973954   
  12080000   288.86462      0              258.83083      514.56285     -0.58107559   
  12090000   298.46563      0              255.04128      519.27308     -0.38715404   
  12100000   294.96482      0              284.86156      545.9941      -0.72844214   
  12110000   290.40212      0              268.58174      525.67491      0.57031352   
  12120000   299.61076      0              264.18692      529.4325      -1.0370456    
  12130000   323.13739      0              252.69554      538.76926      0.1805711    
  12140000   301.44494      0              247.29962      514.169       -0.48934701   
  12150000   302.52173      0              279.35639      547.17905      0.24320359   
  12160000   320.09194      0              284.87189      568.24948     -0.32539777   
  12170000   294.34164      0              264.50166      525.08248     -0.74244929   
  12180000   302.70958      0              252.1383       520.12727      0.16152129   
  12190000   305.38754      0              254.436        524.79576     -1.0309359    
  12200000   303.51069      0              260.28877      528.98696      1.1372786    
  12210000   292.65653      0              279.35696      538.44595      2.6304754    
  12220000   289.7019       0              253.13732      509.61058      0.48040579   
  12230000   291.07112      0              272.7807       530.46613      1.6742512    
  12240000   287.55355      0              269.20053      523.77185      0.042528252  
  12250000   287.09974      0              263.5784       517.74797     -1.634271     
  12260000   312.77572      0              276.97577      553.8763      -0.01851025   
  12270000   280.42602      0              271.48517      519.74648     -1.7175877    
  12280000   298.30747      0              245.59852      509.6903      -1.5589518    
  12290000   291.78084      0              248.97145      507.2852       0.069452465  
  12300000   291.10639      0              287.66011      545.37677     -0.92599789   
  12310000   304.19643      0              273.27485      542.58013     -0.37757291   
  12320000   284.28569      0              258.34446      510.02275      1.7267575    
  12330000   327.63983      0              267.48726      557.547        1.6390542    
  12340000   329.65993      0              288.70985      580.55798      0.85822989   
  12350000   278.71494      0              262.13947      508.88597     -0.29578205   
  12360000   290.57698      0              268.57544      525.82341     -0.10078652   
  12370000   307.89883      0              266.91976      539.50278     -1.0360816    
  12380000   300.54335      0              261.58806      527.65926     -1.1518638    
  12390000   293.48283      0              249.63285      509.45337      0.65468024   
  12400000   300.59886      0              249.21131      515.33166     -0.86147723   
  12410000   287.87257      0              245.18754      500.04129      0.24362246   
  12420000   297.0353       0              258.13362      521.09915     -0.64439756   
  12430000   300.18153      0              250.13531      515.88619     -0.14582593   
  12440000   302.07181      0              277.262        544.68635      1.1663221    
  12450000   288.2756       0              264.3862       519.59676     -1.0747106    
  12460000   304.57604      0              267.4385       537.07985      0.12373873   
  12470000   309.01761      0              255.02158      528.59506     -0.80104228   
  12480000   314.37175      0              261.44596      539.75945      0.61004371   
  12490000   298.98274      0              268.23427      532.92387      0.46172358   
  12500000   315.19566      0              265.08942      544.13232      0.6555974    
  12510000   289.98477      0              285.37989      542.10358      1.2985953    
  12520000   305.65665      0              286.36928      556.96729     -0.74946298   
  12530000   330.89185      0              255.89889      548.83763     -0.54492726   
  12540000   313.02937      0              257.62344      534.74852     -1.0783876    
  12550000   274.07765      0              287.69752      530.33863     -0.090496795  
  12560000   305.13737      0              256.3073       526.44559      0.53901261   
  12570000   305.17974      0              256.86299      527.03879     -1.8381688    
  12580000   293.31185      0              236.27995      495.9491       1.1591941    
  12590000   295.98165      0              255.83685      517.86957      0.56794266   
  12600000   287.34533      0              262.75012      517.13711     -2.3523388    
  12610000   302.31431      0              289.46948      557.10851     -1.1061256    
  12620000   304.47701      0              280.51044      550.06411     -0.2210956    
  12630000   298.16508      0              264.41879      528.38451     -0.77882925   
  12640000   326.84384      0              238.2317       527.58674     -0.46263583   
  12650000   295.74997      0              269.73156      531.55918     -0.34948772   
  12660000   297.93486      0              256.87785      520.63976      0.93874724   
  12670000   311.89134      0              265.83545      541.95304      0.53218636   
  12680000   288.50573      0              260.95964      516.37394     -1.8967581    
  12690000   272.77498      0              263.82049      505.30834      0.48242974   
  12700000   294.4924       0              244.68997      505.40426      0.31152489   
  12710000   300.86965      0              257.2597       523.61977      0.20028936   
  12720000   298.2163       0              257.61371      521.62477     -0.045486655  
  12730000   290.91788      0              258.29922      515.84899      0.38995412   
  12740000   334.98388      0              298.44903      595.01046      0.16258216   
  12750000   326.36128      0              268.36743      557.29526     -0.29648244   
  12760000   292.5422       0              269.68232      528.67011      1.3323106    
  12770000   293.90975      0              268.50134      528.69981     -0.73662135   
  12780000   308.67817      0              267.94106      541.21403     -1.3264723    
  12790000   300.72247      0              264.48721      530.71698      0.91489337   
  12800000   288.08717      0              249.38082      504.42455      0.60056538   
  12810000   297.06007      0              255.06447      518.05192     -1.0880499    
  12820000   283.79889      0              250.82665      502.07398     -1.0305954    
  12830000   299.99504      0              279.29162      544.87741      0.60313288   
  12840000   292.94727      0              271.43358      530.77998     -0.067538692  
  12850000   326.02305      0              263.83619      552.46459      0.85173026   
  12860000   304.15716      0              258.51417      527.78468      0.45065327   
  12870000   321.08856      0              254.19443      538.45433      0.4815258    
  12880000   287.18633      0              257.48095      511.72718      0.43629888   
  12890000   304.44912      0              257.3928       526.92179     -1.405389     
  12900000   318.46707      0              259.20628      541.14536     -1.0947889    
  12910000   281.03271      0              246.72673      495.52515     -0.089313491  
  12920000   316.96066      0              271.54449      552.14994     -0.62533864   
  12930000   283.77506      0              260.43134      511.65756      0.070911024  
  12940000   297.21507      0              244.58975      507.71442     -0.67738022   
  12950000   329.37477      0              274.74173      566.33741      1.8945219    
  12960000   297.45052      0              266.58916      529.92228      1.1711921    
  12970000   300.40667      0              266.32558      532.27578     -0.1964078    
  12980000   312.5362       0              251.87982      528.5683       0.54157277   
  12990000   303.95423      0              264.71922      533.81007     -0.22295592   
  13000000   300.10648      0              239.05716      504.7416      -0.87699392   
  13010000   299.1783       0              250.85167      515.71439     -0.51457266   
  13020000   299.7064       0              261.5882       526.91845     -0.15543134   
  13030000   290.85538      0              249.44271      506.93715     -1.7969464    
  13040000   309.50078      0              243.09113      517.09235      0.031713652  
  13050000   321.91436      0              234.53288      519.52386     -0.47868661   
  13060000   301.72105      0              248.68574      515.79956      0.33038085   
  13070000   275.44745      0              253.52505      497.37884     -1.0617665    
  13080000   315.34634      0              276.53539      555.7117      -0.54012244   
  13090000   318.83995      0              263.04408      545.31328     -0.68207711   
  13100000   295.31411      0              262.27603      523.71779     -0.58110593   
  13110000   328.9483       0              290.97282      582.19094     -0.71064717   
  13120000   304.59517      0              249.99821      519.65649     -0.444604     
  13130000   293.45883      0              240.55095      500.35022     -0.19611318   
  13140000   299.42609      0              259.30112      524.38321      1.1531384    
  13150000   286.42374      0              245.41409      498.98519     -0.7878718    
  13160000   306.97233      0              276.80592      548.56871     -1.8787083    
  13170000   278.20103      0              249.55273      495.84427      1.0318103    
  13180000   330.46753      0              263.01924      555.58234      0.38613702   
  13190000   320.9321       0              261.55755      545.67892     -1.8921187    
  13200000   317.57622      0              239.25285      520.40326      0.95105984   
  13210000   298.34165      0              256.23237      520.3544      -0.14309483   
  13220000   327.8448       0              268.12713      558.36833     -1.9736779    
  13230000   336.16241      0              279.0189       576.62368      0.28064833   
  13240000   285.78719      0              263.10786      516.11542     -0.79249555   
  13250000   292.8289       0              227.67712      486.91872      0.49907272   
  13260000   295.89499      0              286.37667      548.33268     -0.039435197  
  13270000   303.77896      0              251.51349      520.44918      0.0015873034 
  13280000   291.28733      0              278.36143      536.23827     -0.49177064   
  13290000   286.21015      0              259.13197      512.51398     -0.43586585   
  13300000   322.97317      0              283.86732      569.79565     -0.88947761   
  13310000   292.21447      0              272.23064      530.92828     -1.0302575    
  13320000   314.95239      0              276.81226      555.6398       0.72648665   
  13330000   307.88828      0              250.63681      523.21048      0.095358004  
  13340000   301.01731      0              255.20408      521.69488     -0.87038376   
  13350000   338.12115      0              275.39398      574.73283     -2.0112075    
  13360000   344.11017      0              266.72139      571.36233      1.1994005    
  13370000   300.8626       0              254.01782      520.37165     -0.57307908   
  13380000   320.42501      0              274.9729       558.64535      0.3209574    
  13390000   287.18884      0              259.60889      513.85734     -1.4105369    
  13400000   288.64004      0              253.11007      508.64327     -1.1992809    
  13410000   286.88964      0              250.80111      504.78468      1.9514095    
  13420000   306.60213      0              261.76849      533.20353      0.82732985   
  13430000   311.75174      0              266.87422      542.86822      0.067471875  
  13440000   321.17314      0              272.20007      556.53484     -0.48997463   
  13450000   318.3742       0              265.5373       547.39417      0.89995548   
  13460000   337.95459      0              296.60406      595.79545      0.45728186   
  13470000   283.26974      0              259.33901      510.11788     -0.70345067   
  13480000   302.71477      0              265.17112      533.16468     -2.0155421    
  13490000   309.5623       0              260.84538      534.90106      0.18416116   
  13500000   296.66909      0              268.64394      531.28525      0.48643991   
  13510000   302.40627      0              273.60948      541.32992     -0.054712239  
  13520000   316.52109      0              262.80172      543.01802     -0.4877358    
  13530000   321.53336      0              283.53431      568.18798      0.71987642   
  13540000   303.25845      0              269.94543      538.42032      0.77994592   
  13550000   303.79457      0              273.8656       542.81511     -0.74027147   
  13560000   311.41145      0              289.96572      565.65846     -0.92627431   
  13570000   292.5005       0              282.99383      541.9447       0.44452501   
  13580000   310.85162      0              238.63064      513.82776      0.59115037   
  13590000   300.51148      0              252.52813      518.57112     -0.15422584   
  13600000   296.891        0              262.26321      525.10099      0.062523324  
  13610000   313.90841      0              244.28464      522.18793     -1.3736027    
  13620000   307.91288      0              269.37161      541.96706      1.1025673    
  13630000   324.55549      0              249.94203      537.27119     -0.085450508  
  13640000   310.8475       0              243.31259      518.50606     -1.1743479    
  13650000   300.78462      0              287.54983      553.83462      0.22251855   
  13660000   322.42584      0              261.93885      547.38263      1.0237411    
  13670000   312.97096      0              276.07384      553.14722      0.5919596    
  13680000   315.45665      0              257.69179      536.96574     -0.33936901   
  13690000   293.1628       0              257.88274      517.41994      1.0408437    
  13700000   320.21339      0              267.18266      550.66776     -0.26969967   
  13710000   294.86718      0              241.05474      502.10084     -0.28268124   
  13720000   309.9091       0              265.04709      539.4098      -1.3975013    
  13730000   301.54213      0              271.43014      538.38557     -0.35389027   
  13740000   313.60235      0              275.48499      553.11733      0.57891221   
  13750000   291.7423       0              299.11666      557.39628      1.3923183    
  13760000   318.96242      0              275.42744      557.80506     -0.80973814   
  13770000   315.01542      0              249.45354      528.33688     -0.92546043   
  13780000   292.98922      0              263.47916      522.86268      2.7538192    
  13790000   309.05456      0              249.43912      523.0453      -0.79008369   
  13800000   287.3917       0              260.97058      515.39862      0.21861603   
  13810000   289.59434      0              261.39324      517.77128     -0.89592884   
  13820000   281.1681       0              272.3901       521.30838      2.1627559    
  13830000   308.21603      0              254.42116      527.28499      0.75724851   
  13840000   281.59423      0              284.14914      533.44468     -1.8791859    
  13850000   277.5984       0              254.10994      499.86797      0.40364892   
  13860000   322.12454      0              279.32047      564.49751     -0.64255305   
  13870000   292.46847      0              271.46366      530.38617      1.0009666    
  13880000   300.65408      0              270.11428      536.28351     -0.94594283   
  13890000   293.34299      0              256.07162      515.76834     -1.6803725    
  13900000   318.80667      0              266.452        548.69173     -0.15975844   
  13910000   270.61188      0              259.91508      499.48794      1.145009     
  13920000   340.1499       0              284.02231      585.15722      3.0592277    
  13930000   288.65824      0              266.45944      522.00875     -0.57279618   
  13940000   306.49027      0              261.17899      532.515        1.9042191    
  13950000   324.55154      0              267.60966      554.93534     -0.95617786   
  13960000   306.92806      0              260.81189      532.53548     -1.7777808    
  13970000   303.37835      0              277.13827      545.7193       0.060977529  
  13980000   307.01933      0              261.9077       533.7121      -0.072443229  
  13990000   302.6496       0              243.72262      511.65849      1.3626078    
  14000000   304.35325      0              262.68209      532.1262      -0.09802576   
  14010000   305.16682      0              269.58617      539.75053      0.087347851  
  14020000   287.20942      0              277.31545      531.58213     -0.44647838   
  14030000   317.41236      0              264.25804      545.26339      1.2737756    
  14040000   294.43761      0              277.18123      537.84702      0.52642917   
  14050000   321.41564      0              254.78244      539.3319       0.54145741   
  14060000   317.66168      0              241.70636      522.93243     -0.44462321   
  14070000   291.26893      0              250.51641      508.37697      2.1307646    
  14080000   265.9061       0              267.1716       502.57843      1.3981928    
  14090000   288.02849      0              251.13008      506.12187      0.060248568  
  14100000   274.8968       0              266.49769      509.86398     -0.40435912   
  14110000   300.84062      0              283.05678      549.39115     -1.2966872    
  14120000   329.06872      0              260.44758      551.77232      0.84041089   
  14130000   314.16421      0              263.14258      541.27234      0.85053862   
  14140000   320.79006      0              274.47619      558.47181      0.58925003   
  14150000   289.46215      0              254.74138      511.00239     -0.02033798   
  14160000   313.44351      0              266.48079      543.97251     -0.94101274   
  14170000   298.82233      0              243.45943      508.00702      0.084331187  
  14180000   301.27824      0              246.48307      513.20487      0.75288607   
  14190000   325.14675      0              245.7457       533.59831      0.9492375    
  14200000   304.66214      0              282.6845       552.40207     -0.37117433   
  14210000   310.74178      0              268.68643      543.78631      0.33384352   
  14220000   304.45455      0              255.50932      525.04311      0.086225935  
  14230000   292.79684      0              274.31973      533.53294     -1.9138965    
  14240000   296.81278      0              266.0637       528.83222     -0.28855064   
  14250000   302.25331      0              249.12971      516.71474     -1.2943958    
  14260000   310.40134      0              249.12656      523.92505      1.0455405    
  14270000   315.6856       0              264.27128      543.74793     -0.82781422   
  14280000   296.89858      0              265.81587      528.66035     -0.58454668   
  14290000   282.68543      0              269.42463      519.68621      0.13896967   
  14300000   280.45783      0              260.44744      508.73692      1.6548059    
  14310000   289.09015      0              270.91215      526.84382      2.5627048    
  14320000   308.36547      0              274.50187      547.498        0.27113726   
  14330000   278.25619      0              271.12049      517.46086     -2.5176823    
  14340000   298.3445       0              267.34153      531.46609      0.57082091   
  14350000   301.36271      0              263.14562      529.9422       0.12640177   
  14360000   311.03052      0              230.21602      505.57152     -0.52521999   
  14370000   289.05732      0              277.44834      533.35096     -0.84302475   
  14380000   324.3759       0              263.00167      550.17185      0.21885339   
  14390000   292.01624      0              264.71471      523.23686      0.71167595   
  14400000   289.66388      0              272.39114      528.83075     -0.054338263  
  14410000   325.24652      0              257.64706      545.58799      0.61641424   
  14420000   303.98267      0              258.47957      527.59561     -0.74881513   
  14430000   308.33649      0              252.52612      525.4966      -0.46209992   
  14440000   280.29019      0              266.78278      514.92385      0.39907144   
  14450000   323.38255      0              268.02663      554.31739      0.83616641   
  14460000   315.16025      0              293.97013      572.98168     -0.066974022  
  14470000   322.24985      0              265.02168      550.30966     -0.1452159    
  14480000   324.52811      0              282.29379      569.59871     -1.1883956    
  14490000   313.306        0              258.17191      535.5419       0.11883644   
  14500000   271.63112      0              241.36731      481.84249     -0.80189739   
  14510000   325.03047      0              267.00686      554.75653      0.28309062   
  14520000   297.66324      0              282.50459      546.02604     -0.31822547   
  14530000   294.2804       0              279.93124      540.45786     -0.70380713   
  14540000   307.64257      0              258.31759      530.67373     -0.52383565   
  14550000   289.58906      0              280.11923      536.4926      -0.55930249   
  14560000   274.65438      0              283.90472      527.0564      -2.2371689    
  14570000   279.89875      0              287.50464      535.29918     -0.68719321   
  14580000   309.7313       0              251.33803      525.54334      0.77720824   
  14590000   306.39202      0              263.24233      534.49136     -1.2364614    
  14600000   311.64722      0              291.99255      567.89401      0.53762898   
  14610000   286.01929      0              266.37368      519.58672     -1.2477899    
  14620000   293.57188      0              260.57068      520.47004     -0.19502618   
  14630000   297.4246       0              253.58792      516.89809      0.32552547   
  14640000   289.093        0              265.0628       520.997       -0.14867874   
  14650000   318.69855      0              246.02264      528.16665      1.0468423    
  14660000   287.04341      0              249.00124      503.12094     -1.2581339    
  14670000   289.70345      0              265.63925      522.11388     -0.71169084   
  14680000   285.83721      0              284.21023      537.26208      0.14644664   
  14690000   298.97265      0              274.38809      539.06875      2.349946     
  14700000   310.38146      0              265.81349      540.59438      1.4218277    
  14710000   330.0363       0              245.3831       537.56443     -0.45130284   
  14720000   301.43149      0              255.79364      522.65112     -0.37239823   
  14730000   295.90331      0              286.56647      548.52984      0.77191456   
  14740000   325.19867      0              247.01517      534.91375     -0.27388028   
  14750000   284.51201      0              244.28438      496.16303     -0.36394151   
  14760000   287.50448      0              279.83769      534.36557      1.041872     
  14770000   313.74251      0              273.60514      551.36157     -0.49281827   
  14780000   289.90339      0              262.22151      518.87315     -0.94693868   
  14790000   286.72971      0              253.6783       507.52028      0.88387046   
  14800000   298.49455      0              263.75827      528.01567     -1.1511054    
  14810000   299.21623      0              269.66117      534.55748      0.11184133   
  14820000   296.7425       0              267.25679      529.9631       0.077500615  
  14830000   293.02207      0              255.85097      515.26358     -0.85285608   
  14840000   318.49977      0              277.58518      559.55321      0.48075956   
  14850000   314.43769      0              265.56721      543.93909      1.7895354    
  14860000   311.9227       0              248.14103      524.28638      0.0029888974 
  14870000   300.49896      0              255.69885      521.73075     -0.70253157   
  14880000   299.83106      0              261.56643      527.00704     -0.13120097   
  14890000   305.45779      0              247.865        518.28696      0.067507227  
  14900000   296.68314      0              268.99587      531.64963      1.5846543    
  14910000   302.85404      0              269.43586      537.55272      0.16925352   
  14920000   299.4919       0              263.59692      528.73728      0.61611699   
  14930000   295.26817      0              268.68796      530.08904      0.80961345   
  14940000   320.30505      0              269.32229      552.88853      1.1870092    
  14950000   335.03042      0              271.67486      568.27749     -0.78959824   
  14960000   304.70777      0              277.77963      547.5376      -0.41360557   
  14970000   292.51408      0              260.48253      519.44542     -0.050297453  
  14980000   317.45999      0              277.77272      558.82023     -1.3629191    
  14990000   299.97537      0              266.11848      531.68685      0.93241685   
  15000000   327.99204      0              258.83735      549.20889      0.56842577   
  15010000   297.99008      0              267.79282      531.60361     -0.65301119   
  15020000   294.30268      0              289.16337      549.7097       0.87231751   
  15030000   318.32326      0              268.68758      550.49934      0.068106541  
  15040000   308.60996      0              247.13427      520.34684     -0.55299997   
  15050000   302.90191      0              269.91047      538.0697      -2.857624     
  15060000   323.88758      0              243.11969      529.85756     -0.090626348  
  15070000   300.7197       0              260.80803      527.03536      0.83539826   
  15080000   298.11522      0              260.72612      524.64769      0.82194231   
  15090000   313.16572      0              292.74374      569.98954     -1.8212816    
  15100000   279.69828      0              265.29286      512.90991     -0.19544547   
  15110000   295.13109      0              249.76395      511.04367      0.27769652   
  15120000   289.85623      0              244.49178      501.10167      0.60818679   
  15130000   296.31782      0              250.14606      512.4764       0.52741722   
  15140000   284.26648      0              265.2842       516.94548     -0.24913724   
  15150000   297.10651      0              275.38866      538.41722      0.24873036   
  15160000   298.82701      0              248.81477      513.36649     -0.99171044   
  15170000   321.66719      0              277.98303      562.75518     -0.039563334  
  15180000   295.06856      0              272.0452       533.26957     -0.57643804   
  15190000   277.32271      0              252.63863      498.15258      0.29416419   
  15200000   291.30858      0              256.7214       514.61706      1.1243016    
  15210000   300.96865      0              261.66045      528.10817     -1.5451155    
  15220000   319.99458      0              278.45678      561.74816     -1.2583079    
  15230000   276.65566      0              256.57761      501.50103     -0.96766075   
  15240000   306.29214      0              258.72691      529.88752     -0.27843046   
  15250000   313.06355      0              269.45858      546.61393     -1.9731242    
  15260000   296.08123      0              273.92013      536.04102      0.34000019   
  15270000   289.03481      0              270.52927      526.41195     -0.44642573   
  15280000   307.28261      0              265.44616      537.48363      0.94670451   
  15290000   308.75283      0              261.99835      535.33741      0.76147124   
  15300000   294.88584      0              275.03262      536.09523     -0.5296427    
  15310000   336.55075      0              270.30886      568.25743      0.8896065    
  15320000   320.03438      0              244.66331      527.98993      0.33928624   
  15330000   280.94829      0              261.42195      510.14564      0.20534164   
  15340000   274.3944       0              259.73384      502.65536      0.1104077    
  15350000   288.40437      0              265.58853      520.91309      0.31945881   
  15360000   304.65521      0              251.90656      521.618        0.52784207   
  15370000   287.75499      0              258.03747      512.78713     -0.20379767   
  15380000   328.77113      0              261.98338      553.04466     -1.3129433    
  15390000   299.03913      0              260.21186      524.95138     -1.4085818    
  15400000   327.5651       0              268.84729      558.84086      1.6950413    
  15410000   312.20272      0              253.30533      529.69858     -0.85345948   
  15420000   286.60173      0              270.07306      523.80173      0.061832676  
  15430000   306.02276      0              262.92172      533.84386     -0.92900008   
  15440000   271.72805      0              278.13525      518.69626      1.2630255    
  15450000   290.34773      0              235.26814      492.31316     -0.71717094   
  15460000   305.85682      0              268.14543      538.92065      0.75704036   
  15470000   308.49348      0              267.69393      540.80338      0.095722209  
  15480000   315.393        0              264.14793      543.36554      0.12081812   
  15490000   313.80799      0              265.04425      542.85864      0.32209674   
  15500000   306.42617      0              264.7294       536.00867     -0.81185588   
  15510000   301.28916      0              259.37238      526.10385     -0.72190426   
  15520000   290.13097      0              275.80382      532.65694     -0.67944429   
  15530000   263.70893      0              239.47807      472.93974      0.56282119   
  15540000   313.5368       0              263.38098      540.95529      1.4431803    
  15550000   315.55312      0              262.68482      542.04418     -0.19832599   
  15560000   284.83505      0              265.92765      518.09228     -0.67537815   
  15570000   288.10056      0              265.4211       520.4767      -0.018360549  
  15580000   292.14829      0              262.5544       521.19345     -0.24365702   
  15590000   305.50581      0              268.81005      539.27452      1.3721472    
  15600000   299.59191      0              271.81614      537.04504      0.27430818   
  15610000   304.60779      0              250.25201      519.92146     -0.011227451  
  15620000   307.09023      0              269.65329      541.52046     -0.73898029   
  15630000   300.39347      0              260.79802      526.73654     -0.20380339   
  15640000   321.07844      0              235.09736      519.34829      1.7094251    
  15650000   317.56027      0              253.9864       535.1227       0.030046787  
  15660000   319.37268      0              256.79129      539.53211      0.2191248    
  15670000   282.61439      0              254.97632      505.175        0.0998567    
  15680000   274.71414      0              241.10603      484.31062      0.51860757   
  15690000   292.35894      0              276.32098      535.14652      0.96968421   
  15700000   321.91015      0              266.11093      551.09817     -0.70974927   
  15710000   307.69801      0              236.70255      509.10777     -0.2550812    
  15720000   290.16917      0              270.67177      527.55871      0.29999403   
  15730000   307.72964      0              248.79271      521.22594     -0.4816167    
  15740000   302.95193      0              261.42395      529.62747      0.0048718463 
  15750000   304.2141       0              286.933        556.25392     -0.80401306   
  15760000   305.95022      0              274.33787      545.19578      1.2272774    
  15770000   302.40478      0              250.92596      518.64509     -0.31327522   
  15780000   303.85791      0              253.69472      522.70031      1.0258414    
  15790000   311.0588       0              285.75995      561.14049      0.4451946    
  15800000   291.63003      0              253.76315      511.94339      0.3939465    
  15810000   316.51669      0              275.47655      555.68897      0.95082474   
  15820000   309.11007      0              255.9011       529.55642     -0.32923118   
  15830000   297.87488      0              248.3627       512.0715      -0.54968791   
  15840000   325.46285      0              271.35398      559.48644     -0.10720326   
  15850000   310.65991      0              234.90521      509.93261     -0.44861119   
  15860000   320.37191      0              275.12129      558.74672      2.0148457    
  15870000   308.3652       0              242.23075      515.22664      0.32483141   
  15880000   297.65109      0              238.28948      501.80016     -1.5996723    
  15890000   313.73563      0              280.85069      558.60103      1.506143     
  15900000   283.39451      0              262.0614       512.95072     -0.29333635   
  15910000   295.41095      0              249.35148      510.87896     -0.0091802497 
  15920000   304.4822       0              249.73616      519.29443      1.4308026    
  15930000   299.63301      0              264.87947      530.14476      0.98291964   
  15940000   299.56919      0              282.52922      547.738        0.54715043   
  15950000   289.67489      0              258.02188      514.47122     -1.2410048    
  15960000   293.30059      0              259.69808      519.35726     -0.008763808  
  15970000   291.4424       0              260.83812      518.85225     -0.94729939   
  15980000   282.66393      0              255.29591      505.53845      0.3548707    
  15990000   309.05102      0              242.49229      516.09534      1.2466081    
  16000000   284.67241      0              267.23589      519.25655      0.57899244   
  16010000   296.23989      0              281.08702      543.34837     -0.62693442   
  16020000   299.21782      0              277.20113      542.09885      0.91938425   
  16030000   294.49588      0              254.90361      515.62098     -1.0009898    
  16040000   287.63212      0              256.97597      511.61685     -0.23602857   
  16050000   300.08143      0              255.97554      521.63781     -0.68898795   
  16060000   325.4956       0              272.96848      561.12992     -1.0410202    
  16070000   283.00472      0              264.7661       515.31034     -0.76291424   
  16080000   285.80442      0              246.76076      499.78358      0.036348583  
  16090000   307.82424      0              270.12722      542.64419      0.88292333   
  16100000   310.75907      0              249.91857      525.03376      1.3848246    
  16110000   300.56133      0              246.31093      512.39806      0.49105824   
  16120000   316.05662      0              247.90077      527.70588     -0.50684033   
  16130000   299.85304      0              275.73335      541.19342      0.61722848   
  16140000   308.01285      0              259.27193      531.95589      0.3936665    
  16150000   330.29893      0              264.34294      556.75677      0.99804493   
  16160000   286.91545      0              262.90189      516.9083      -1.2523509    
  16170000   291.36335      0              282.72826      540.6724      -0.5863151    
  16180000   274.59262      0              265.90126      508.99826     -0.68188693   
  16190000   289.31326      0              241.54491      497.67411     -1.2331634    
  16200000   281.1003       0              264.1911       513.04936     -0.44292143   
  16210000   295.16577      0              264.14066      525.45109     -1.5566996    
  16220000   280.7647       0              254.49779      503.05894     -0.69336548   
  16230000   313.85162      0              257.20097      535.054        1.0718054    
  16240000   326.07859      0              260.7711       549.44867     -0.97708494   
  16250000   318.17284      0              251.3955       533.0741      -0.93617371   
  16260000   329.78751      0              279.19591      571.15699     -2.6115807    
  16270000   291.71906      0              258.25522      516.51428      0.10209731   
  16280000   299.18407      0              253.01948      517.88732      1.4562474    
  16290000   282.61637      0              248.93765      499.13809     -2.1627836    
  16300000   287.43142      0              263.39693      517.86013      1.0350494    
  16310000   282.30552      0              264.20932      514.13456      0.62049628   
  16320000   303.5589       0              264.25373      532.9946       0.35346121   
  16330000   314.63341      0              277.69563      556.24077      2.1608091    
  16340000   288.80267      0              258.71785      514.39502      1.1776441    
  16350000   325.29         0              260.04582      548.02524      0.58355909   
  16360000   299.99154      0              270.61789      536.20058     -1.2258963    
  16370000   307.82501      0              255.92163      528.43929      0.25895691   
  16380000   293.44351      0              281.42922      541.21493      0.51259307   
  16390000   313.39041      0              282.37517      559.81988     -1.1583339    
  16400000   327.33638      0              258.75772      548.54881     -2.608581     
  16410000   310.20451      0              243.18589      517.81012     -0.98774787   
  16420000   291.86305      0              248.49739      506.88391     -0.97780737   
  16430000   320.17871      0              252.91453      536.36893      2.0541932    
  16440000   295.73222      0              252.83437      514.64628      1.1698794    
  16450000   294.28099      0              270.19911      530.72624     -2.0183559    
  16460000   306.90807      0              280.29097      551.99686     -0.42884818   
  16470000   308.4493       0              256.91549      529.98583     -0.88853276   
  16480000   287.07804      0              272.95921      527.10957      0.68875695   
  16490000   309.1345       0              265.28453      538.96149     -0.093231435  
  16500000   317.52358      0              242.54334      523.64715     -0.79568281   
  16510000   298.45609      0              263.13778      527.36114     -0.099107905  
  16520000   308.93284      0              259.37113      532.86955     -0.13340678   
  16530000   281.47405      0              263.22721      512.41635      0.86986468   
  16540000   308.4941       0              261.05329      534.1633      -0.33816648   
  16550000   309.34594      0              255.7916       529.65574      0.025985004  
  16560000   297.98129      0              259.97217      523.77518     -0.13334604   
  16570000   291.70935      0              280.37037      538.62084     -0.32861565   
  16580000   302.80947      0              242.92828      511.00568      0.25236003   
  16590000   303.40068      0              260.55673      529.15753      0.20566705   
  16600000   302.31762      0              253.51723      521.1592       1.228054     
  16610000   311.30157      0              258.51953      534.115        0.7016886    
  16620000   300.38042      0              254.8104       520.73737      0.20155423   
  16630000   321.7206       0              267.78814      552.60757      0.90942092   
  16640000   301.38504      0              292.21693      559.03328     -0.94352718   
  16650000   311.75617      0              252.77161      528.76953     -0.24294113   
  16660000   306.35606      0              280.7393       551.9565      -0.75483416   
  16670000   313.06149      0              285.23534      562.38886      0.51905481   
  16680000   310.99919      0              251.48514      526.81291      0.73194841   
  16690000   290.68893      0              256.14121      513.48828     -0.25869257   
  16700000   288.98079      0              268.62955      524.46442      0.96218023   
  16710000   307.94776      0              250.55679      523.18312     -0.25354281   
  16720000   297.29282      0              263.60103      526.79454      1.1520298    
  16730000   299.87266      0              285.29004      550.76748     -0.055496262  
  16740000   285.54593      0              267.68716      520.48114      0.84941108   
  16750000   280.5248       0              271.35085      519.69962     -1.4260496    
  16760000   306.47849      0              237.35514      508.68072      1.1718568    
  16770000   300.3487       0              269.5226       535.42148     -2.2233861    
  16780000   284.84221      0              265.90455      518.07552      0.08639898   
  16790000   298.15117      0              277.37029      541.32369      0.21570471   
  16800000   307.44129      0              242.34418      514.52213      0.70399542   
  16810000   294.11203      0              273.298        533.67555      1.3416228    
  16820000   287.82031      0              274.09115      528.89864     -1.4134496    
  16830000   290.99661      0              271.36173      528.9812       0.95349777   
  16840000   309.67595      0              237.72639      511.88269      0.0017323577 
  16850000   286.23204      0              270.49426      523.89565      1.9046913    
  16860000   305.71153      0              290.022        560.6686       0.060446077  
  16870000   307.8415       0              253.07925      525.61151     -0.10728797   
  16880000   308.60019      0              266.66147      539.8654      -1.1305783    
  16890000   327.13491      0              270.84278      560.4555      -1.7778068    
  16900000   305.92204      0              266.96959      537.80255      0.73319847   
  16910000   299.9652       0              246.29259      511.85195     -0.64907348   
  16920000   304.78222      0              280.35229      550.17617      0.039207807  
  16930000   329.59488      0              254.76445      546.55499      0.19720913   
  16940000   302.42265      0              266.13705      533.872       -0.64576366   
  16950000   273.75913      0              264.62687      506.98599     -0.11953508   
  16960000   295.93431      0              252.84671      514.83753      1.1175038    
  16970000   294.52842      0              258.43271      519.17889     -0.38348516   
  16980000   311.89917      0              255.72639      531.85091      0.80357938   
  16990000   274.03642      0              256.28524      498.88983     -0.18710561   
  17000000   286.89283      0              281.26997      535.25636      2.6483411    
  17010000   295.59101      0              267.91359      529.60048     -1.3145615    
  17020000   291.34578      0              251.95838      509.88697      0.49427319   
  17030000   301.03802      0              276.72438      543.23351     -0.057981391  
  17040000   304.50039      0              253.09079      522.66517      0.26136952   
  17050000   284.26363      0              271.00623      522.66499     -0.82954324   
  17060000   304.58069      0              261.5351       531.18057      1.3527943    
  17070000   306.164        0              264.51327      535.56044      0.15824446   
  17080000   288.83815      0              262.4131       518.12168     -0.59518386   
  17090000   295.62105      0              279.39691      541.1104       0.32989053   
  17100000   333.00319      0              259.57885      554.38678     -0.58529633   
  17110000   299.49069      0              269.28445      534.42373     -1.5655095    
  17120000   298.94875      0              278.67206      543.33156     -0.26623235   
  17130000   305.00438      0              254.64281      524.66337      1.8963166    
  17140000   313.19159      0              291.50847      568.77718      0.12415698   
  17150000   301.68825      0              254.85101      521.9358       1.0924636    
  17160000   312.7379       0              264.52728      541.39432      0.4469732    
  17170000   330.22177      0              249.48486      541.83039     -1.8114739    
  17180000   275.44801      0              263.53134      507.38562      0.86337853   
  17190000   295.38926      0              288.26264      549.77092      1.1015052    
  17200000   319.0123       0              248.85746      531.27923      0.23282236   
  17210000   291.17862      0              258.4509       516.23151      0.15940743   
  17220000   296.23461      0              272.1799       534.43657      0.60152975   
  17230000   316.41984      0              245.52255      525.64921     -0.34132778   
  17240000   297.76975      0              281.59447      545.2102       0.69877383   
  17250000   306.68081      0              272.18226      543.68696     -0.23351347   
  17260000   315.64485      0              274.25074      553.69131      0.81241194   
  17270000   287.08267      0              255.42999      509.58444      0.22622592   
  17280000   315.60761      0              273.93379      553.34139      0.8792145    
  17290000   289.19429      0              245.29428      501.31815      0.47186921   
  17300000   285.5158       0              265.24526      518.01256     -0.0052537442 
  17310000   292.68381      0              275.11573      534.22888      0.25116452   
  17320000   309.77993      0              264.13097      538.37932     -0.62236618   
  17330000   302.65571      0              270.16766      538.10894      0.13647412   
  17340000   301.71146      0              246.06809      513.17342      0.38571708   
  17350000   303.45805      0              247.187        515.83858     -0.43808293   
  17360000   325.09807      0              247.33276      535.14227     -0.55343683   
  17370000   294.78564      0              275.42188      536.39579     -0.48674176   
  17380000   292.83496      0              288.75997      548.00693     -1.1735532    
  17390000   285.58985      0              268.99292      521.82578     -1.1008274    
  17400000   300.31812      0              254.84252      520.71433     -0.11152271   
  17410000   295.97253      0              269.80269      531.82734      0.30866745   
  17420000   306.64867      0              237.61109      509.08734      1.1083831    
  17430000   291.55828      0              247.35678      505.4735       0.055523516  
  17440000   314.52386      0              295.32817      573.77633     -0.90757218   
  17450000   319.96807      0              275.88921      559.15714     -0.50792625   
  17460000   282.09604      0              271.78631      521.5261       0.84672956   
  17470000   310.38254      0              271.07164      545.85349      0.21747604   
  17480000   297.7371       0              251.01048      514.59731      1.409575     
  17490000   293.60613      0              249.17736      509.10704     -0.85219434   
  17500000   308.46078      0              243.3209       516.40141     -0.70260773   
  17510000   305.66957      0              274.09054      544.69999      1.1084022    
  17520000   297.04856      0              274.49916      537.47643     -2.3216589    
  17530000   328.63418      0              275.8318       566.77183     -0.82353182   
  17540000   291.42353      0              253.75435      511.75177     -0.20732012   
  17550000   307.70031      0              254.42341      526.83067     -1.037064     
  17560000   313.78787      0              266.4311       544.22769      1.151796     
  17570000   319.43777      0              267.66562      550.46407     -0.10158263   
  17580000   275.91221      0              257.75894      502.02418      0.57558203   
  17590000   303.9413       0              251.80007      520.87948     -0.60213787   
  17600000   310.63435      0              266.96235      541.96712      0.92594605   
  17610000   302.15291      0              243.88167      511.37782      0.27510857   
  17620000   290.81101      0              269.42099      526.87614      2.2564688    
  17630000   332.67722      0              255.14165      549.66099      0.098287485  
  17640000   309.04878      0              274.34019      547.94126      0.085935551  
  17650000   269.48901      0              274.12612      512.70489     -0.11549707   
  17660000   308.08533      0              278.25401      551.00214      1.322096     
  17670000   299.00132      0              255.26242      519.96847     -1.3879021    
  17680000   291.0885       0              257.37147      515.07229      0.30475565   
  17690000   306.53451      0              251.52554      522.90072     -0.084040921  
  17700000   305.79131      0              264.17628      534.8935      -1.4223102    
  17710000   296.63359      0              280.90642      543.51631     -0.58691026   
  17720000   306.2092       0              283.43608      554.52326     -0.33239375   
  17730000   298.29901      0              257.75817      521.84245     -0.0073392726 
  17740000   270.31359      0              274.47482      513.78359     -0.20876759   
  17750000   277.81565      0              252.28211      498.23247     -1.373112     
  17760000   301.25272      0              267.40848      534.10769     -0.33210366   
  17770000   303.86316      0              284.37467      553.3849      -0.26005135   
  17780000   296.70461      0              270.53299      533.20575      0.83595873   
  17790000   308.1829       0              269.46236      542.29686     -0.7714738    
  17800000   325.38423      0              258.19986      546.26271      0.027708854  
  17810000   285.19454      0              249.85693      502.33983     -0.37680719   
  17820000   304.72189      0              291.31927      561.08974      0.84881802   
  17830000   313.63483      0              272.25621      549.91731      1.2536976    
  17840000   293.67878      0              276.34602      536.34001      1.0865214    
  17850000   269.97495      0              273.57052      512.57951     -1.3269721    
  17860000   316.76695      0              241.93408      522.36804     -0.077270172  
  17870000   284.44051      0              283.14721      534.96256      0.64602098   
  17880000   309.42649      0              266.67306      540.60852     -0.26655674   
  17890000   264.94664      0              286.71274      521.27016      1.3067862    
  17900000   299.25374      0              262.40253      527.33205      1.5022117    
  17910000   302.18008      0              269.97343      537.49364     -0.27044319   
  17920000   300.46025      0              259.69149      525.68913     -0.794393     
  17930000   276.50296      0              263.1024       507.89063      0.052154699  
  17940000   310.15584      0              262.21006      536.79121     -0.74264482   
  17950000   301.29542      0              288.28846      555.02548      1.4959435    
  17960000   296.94044      0              258.93174      521.81329      1.2439604    
  17970000   298.42623      0              248.66618      512.8631       1.9807799    
  17980000   292.08968      0              268.76024      527.3474       0.07014719   
  17990000   305.26209      0              266.00907      536.25778     -0.054984046  
  18000000   309.19687      0              298.68305      572.41522      0.98515206   
  18010000   291.91598      0              265.62152      524.05491      2.0287407    
  18020000   321.81246      0              251.40443      536.30519     -0.025711932  
  18030000   287.20544      0              268.17196      522.4351       0.71593784   
  18040000   311.42355      0              269.53705      545.24051     -0.7084287    
  18050000   287.88519      0              268.80111      523.66604      1.4048046    
  18060000   318.17165      0              255.27777      536.95532      0.56657502   
  18070000   315.1798       0              260.21537      539.24424      1.4190323    
  18080000   291.91657      0              283.19165      541.62556     -0.46225299   
  18090000   319.20346      0              264.02651      546.61752     -1.1471514    
  18100000   296.66457      0              254.49587      517.13318      0.70613123   
  18110000   304.29008      0              267.75669      537.14487      0.22755807   
  18120000   301.14147      0              277.57184      544.17256      1.3678615    
  18130000   304.59097      0              264.25594      533.9105       1.0822799    
  18140000   309.50331      0              283.9692       557.97266     -1.6343265    
  18150000   291.63552      0              274.75533      532.94043     -0.66341694   
  18160000   275.68725      0              266.83289      510.89897      0.32875104   
  18170000   315.98928      0              260.7537       540.4992      -0.21310339   
  18180000   281.46917      0              251.31395      500.49877      0.73039885   
  18190000   304.5848       0              267.74418      537.39329     -2.4536961    
  18200000   329.17016      0              263.4629       554.87743      0.24312948   
  18210000   278.61396      0              271.25362      517.91072     -2.8608849    
  18220000   272.45686      0              250.27308      491.47929     -0.51285821   
  18230000   322.90441      0              252.34849      538.21596      1.812857     
  18240000   283.76771      0              253.48842      504.70814      0.80639321   
  18250000   285.96367      0              276.12543      529.28924     -0.91160327   
  18260000   296.35406      0              240.96572      503.32814     -0.26191072   
  18270000   311.12592      0              257.3508       532.79076      1.0198938    
  18280000   292.34657      0              275.09948      533.91407      1.2755131    
  18290000   290.57818      0              265.77952      523.02856     -0.25246358   
  18300000   309.31922      0              262.09695      535.93744     -0.5781851    
  18310000   311.14938      0              272.5611       548.02183      0.36063264   
  18320000   309.285        0              266.59138      540.40157     -0.36111292   
  18330000   280.51373      0              269.92692      518.26589     -0.028862528  
  18340000   318.69741      0              249.63117      531.77417      0.93872576   
  18350000   297.42475      0              288.20577      551.51607     -0.83646752   
  18360000   306.32021      0              276.82684      548.0123       0.33331642   
  18370000   283.36282      0              258.27914      509.1404      -2.0768729    
  18380000   299.10884      0              264.69166      529.49289     -0.56063969   
  18390000   318.81308      0              267.5777       549.82311     -1.5547745    
  18400000   306.28324      0              257.9446       529.09733     -1.172352     
  18410000   287.86847      0              245.14711      499.99724     -2.4793993    
  18420000   330.48975      0              267.94833      560.53111     -1.1364308    
  18430000   294.88493      0              265.48889      526.5507       0.43852207   
  18440000   318.61908      0              256.93798      539.01165      0.83749381   
  18450000   294.58232      0              259.51346      520.30736      0.23979342   
  18460000   313.84572      0              272.98099      550.8288       0.10232562   
  18470000   297.02853      0              260.91956      523.87909     -1.0482647    
  18480000   309.24662      0              268.88519      542.6614      -0.69279773   
  18490000   285.98278      0              241.33301      494.51373      0.087369022  
  18500000   316.78391      0              238.73053      519.17951      0.16324122   
  18510000   293.53798      0              266.18887      526.05821      0.64913449   
  18520000   294.57993      0              270.02368      530.81546     -0.12441514   
  18530000   294.42944      0              299.6101       560.26866     -0.51841938   
  18540000   311.90451      0              239.83952      515.96876      0.033397865  
  18550000   282.43457      0              271.05311      521.09259      2.5989476    
  18560000   319.83104      0              254.26299      537.40959     -1.1005005    
  18570000   279.89979      0              256.36726      504.1627       1.2531618    
  18580000   281.09189      0              254.01443      502.86524      0.12865396   
  18590000   309.6505       0              272.09925      546.23302      0.68080588   
  18600000   292.26052      0              257.76897      516.50738      0.52506713   
  18610000   298.34202      0              266.19926      530.32163      1.3478891    
  18620000   272.27175      0              275.76304      516.80538      0.070501956  
  18630000   299.12581      0              251.22359      516.03984     -1.4009277    
  18640000   317.37292      0              262.13672      543.10715      0.55819305   
  18650000   305.66973      0              246.29471      516.9043      -0.19163738   
  18660000   293.40884      0              262.51027      522.26528      0.21471721   
  18670000   277.68413      0              251.40994      497.24387     -0.85786871   
  18680000   301.75166      0              257.22416      524.36508      0.90447307   
  18690000   308.38736      0              259.61339      532.6289      -1.4026372    
  18700000   339.23405      0              261.15208      561.47619      0.84945753   
  18710000   306.28901      0              274.00542      545.16326     -1.3427975    
  18720000   316.2722       0              265.13979      545.13575      0.4377687    
  18730000   327.02842      0              270.5115       560.02995     -0.8432593    
  18740000   299.60896      0              256.38219      521.62618      1.4294782    
  18750000   329.92672      0              275.14992      567.23424     -0.22530309   
  18760000   345.00184      0              276.45421      581.88454     -0.091025809  
  18770000   292.41758      0              271.87015      530.74761      0.15499094   
  18780000   302.10878      0              268.0624       535.51948     -0.48708406   
  18790000   300.81365      0              269.43719      535.74769      0.68858255   
  18800000   287.35782      0              253.72957      508.12762     -0.97650343   
  18810000   312.72984      0              271.93659      548.7965      -0.16261786   
  18820000   281.64591      0              250.05902      499.40031      1.2332415    
  18830000   292.92338      0              277.47589      536.80113     -0.45251988   
  18840000   312.37356      0              242.27371      518.8182      -0.080271181  
  18850000   277.07649      0              286.61678      531.91276      0.50904048   
  18860000   322.82877      0              251.97886      537.77936     -0.50555492   
  18870000   316.45006      0              245.27068      525.42411     -0.84479943   
  18880000   319.72943      0              260.56007      543.61672     -0.48949383   
  18890000   295.99844      0              257.16541      519.213       -1.4285018    
  18900000   295.88694      0              260.36659      522.31547      1.5765572    
  18910000   302.04556      0              253.00486      520.40597     -0.74368068   
  18920000   316.21098      0              258.11508      538.05684     -0.32291954   
  18930000   311.1228       0              259.64722      535.08442      0.35515155   
  18940000   273.08832      0              267.79598      509.56124     -0.53268155   
  18950000   278.00643      0              262.09191      508.21116      0.41734382   
  18960000   341.147        0              273.07387      575.09151      1.2312102    
  18970000   311.23332      0              259.9001       535.43514     -1.4751744    
  18980000   305.10061      0              272.34155      542.4473      -1.7386597    
  18990000   294.92472      0              245.71202      506.80905      0.91769783   
  19000000   295.83017      0              278.97287      540.87149     -0.48954189   
  19010000   302.21876      0              263.94764      531.50208     -0.036100564  
  19020000   326.08419      0              257.40565      546.08817     -0.2968865    
  19030000   314.31583      0              248.05636      526.32035      0.75731724   
  19040000   325.13658      0              271.96116      559.80476      0.78993768   
  19050000   315.50244      0              264.84566      544.16015      1.1469912    
  19060000   277.26208      0              269.31097      514.77124      0.275765     
  19070000   302.45397      0              262.8597       530.62237      0.26930136   
  19080000   317.23         0              254.98503      535.82894      0.48068148   
  19090000   316.36587      0              263.51282      543.59171      1.6765181    
  19100000   308.156        0              261.78819      534.59887     -2.0469267    
  19110000   280.17366      0              287.95396      535.99186     -0.59613459   
  19120000   305.98784      0              261.08054      531.97175      0.60753138   
  19130000   277.82546      0              282.5474       528.50644     -0.13837137   
  19140000   298.15816      0              256.56804      520.52763      0.49819496   
  19150000   286.74236      0              278.33184      532.18503      0.50291497   
  19160000   286.02185      0              245.17386      498.38917      0.53114066   
  19170000   282.12678      0              260.44635      510.21335     -0.4942586    
  19180000   271.20757      0              263.38949      503.48971     -1.0406324    
  19190000   319.94215      0              236.97425      520.21922     -0.66099531   
  19200000   309.15944      0              248.60963      522.30866      0.6467333    
  19210000   293.083        0              257.51628      516.98284      1.2483377    
  19220000   315.38493      0              260.82883      540.03929     -0.87924937   
  19230000   305.70255      0              261.211        531.84965      0.029726437  
  19240000   303.33553      0              262.94905      531.49217     -0.74619158   
  19250000   313.13182      0              265.10662      542.3224      -0.99298164   
  19260000   309.52542      0              244.95569      518.97872      0.48518906   
  19270000   314.98075      0              263.08533      541.93797     -1.1694779    
  19280000   296.90241      0              260.12851      522.97639     -0.6041231    
  19290000   311.45054      0              270.48234      546.20969     -0.75296899   
  19300000   291.7382       0              268.73544      527.01144     -1.4345741    
  19310000   320.67625      0              240.96906      524.86393     -1.1602179    
  19320000   308.28748      0              258.19462      531.12171      1.8140494    
  19330000   286.12874      0              237.31785      490.62779     -0.53496907   
  19340000   288.86052      0              251.43959      507.16798      1.3070925    
  19350000   294.26507      0              262.17778      522.69082      0.92413448   
  19360000   299.52149      0              286.53309      551.69964      0.032599217  
  19370000   325.17529      0              282.2978       570.17568     -0.06355342   
  19380000   311.987        0              269.46671      545.66898     -0.68831946   
  19390000   302.61774      0              246.05993      513.9676      -0.60396093   
  19400000   295.72392      0              243.88774      505.6923      -1.0758231    
  19410000   311.97255      0              260.26634      536.45582      0.57615505   
  19420000   316.28532      0              275.6216       555.62918      0.40081935   
  19430000   297.14868      0              278.10663      541.17253      1.2108181    
  19440000   270.44292      0              248.01001      487.43329     -2.2914958    
  19450000   317.02716      0              282.86586      563.53018     -2.1446637    
  19460000   310.86368      0              235.42529      510.63309      0.010060033  
  19470000   305.9064       0              272.9284       543.74752     -1.1231912    
  19480000   318.98694      0              268.91967      551.31899     -0.83904891   
  19490000   299.71797      0              280.35932      545.69982     -0.148648     
  19500000   303.77805      0              265.46844      534.40332     -0.022385183  
  19510000   298.84649      0              255.73834      520.30731     -0.079609838  
  19520000   297.92122      0              263.12329      526.87312      0.45202263   
  19530000   285.14525      0              256.64491      509.08417     -0.042700291  
  19540000   321.41039      0              258.62917      543.17397      0.30420259   
  19550000   273.83572      0              264.46311      506.89003      0.76256732   
  19560000   324.69184      0              256.78153      544.2314      -0.86865998   
  19570000   302.18334      0              270.5038       538.02689      0.5902579    
  19580000   289.12696      0              261.42166      517.38593      1.2201097    
  19590000   290.02222      0              248.67199      505.42883     -2.1205888    
  19600000   287.07881      0              256.38602      510.53706     -0.51612839   
  19610000   303.79914      0              233.18482      502.13838      0.00050587625
  19620000   306.02861      0              278.87609      549.8034      -0.17429088   
  19630000   303.44324      0              255.90369      524.54217      0.15426664   
  19640000   295.4796       0              255.89454      517.4828       2.1023266    
  19650000   300.32173      0              251.89405      517.76905      0.013141201  
  19660000   325.31357      0              245.46309      533.46338      0.23400745   
  19670000   313.08291      0              245.54351      522.71599      0.55329967   
  19680000   287.50121      0              277.76903      532.29402     -0.76426056   
  19690000   279.71302      0              261.52942      509.15952      0.3790763    
  19700000   303.14486      0              256.16297      524.5373       0.24891026   
  19710000   313.73025      0              282.20493      559.95051      0.14681197   
  19720000   289.9387       0              253.51952      510.20242      0.025511522  
  19730000   271.8685       0              273.05296      513.7383      -0.041897701  
  19740000   264.8425       0              263.12629      497.59151     -0.86693866   
  19750000   335.33073      0              235.35886      532.22736     -0.099195419  
  19760000   298.25411      0              260.05211      524.09665     -1.9353136    
  19770000   289.06382      0              265.67267      521.58104     -0.4248767    
  19780000   313.35596      0              252.23363      529.64785     -0.89103433   
  19790000   315.52812      0              238.51143      517.84866     -0.87763613   
  19800000   313.77444      0              250.05765      527.84235      1.2169838    
  19810000   286.98102      0              254.05754      508.12201     -1.1229277    
  19820000   283.07464      0              258.09163      508.69777      0.69891251   
  19830000   288.3288       0              260.09895      515.3566       0.28160685   
  19840000   300.25063      0              274.60011      540.41217     -0.11863811   
  19850000   317.28377      0              257.11801      538.00952     -0.11528853   
  19860000   296.86991      0              255.77578      518.59489     -0.87545084   
  19870000   308.92163      0              282.92568      556.41418      1.2695902    
  19880000   292.07558      0              268.82007      527.39475     -0.30575442   
  19890000   308.1221       0              261.44408      534.22476     -0.030574427  
  19900000   294.17837      0              262.1128       522.54908      0.068784496  
  19910000   297.99275      0              256.25814      520.07129      1.3260892    
  19920000   284.60614      0              281.49455      533.45653      0.031444826  
  19930000   303.45104      0              264.67052      533.3159       0.5583945    
  19940000   293.35299      0              264.01823      523.7238      -0.40668187   
  19950000   306.17067      0              265.17852      536.2316       1.5175079    
  19960000   296.48682      0              260.70723      523.18719     -0.46749812   
  19970000   311.50928      0              273.31183      549.09118     -1.7667521    
  19980000   322.40296      0              263.65894      549.08247      0.044017128  
  19990000   304.01256      0              276.91114      546.05364     -0.57988963   
  20000000   321.3451       0              247.33842      531.82542     -1.1199106    
  20010000   274.59277      0              253.29244      496.38958      0.64369122   
  20020000   320.14034      0              255.69003      539.11046     -0.11539401   
  20030000   299.97122      0              256.85437      522.41907     -0.34593633   
  20040000   327.5689       0              276.37719      566.37413     -0.29702134   
  20050000   318.00633      0              268.25897      549.79016      0.75389824   
  20060000   284.86892      0              257.91238      510.107       -0.61572027   
  20070000   291.5312       0              247.61165      505.70439     -0.87988491   
  20080000   287.59084      0              261.7397       516.34404      0.39042866   
  20090000   260.89478      0              266.69832      497.66862      0.028882047  
  20100000   291.91707      0              285.38811      543.82247     -1.0312924    
  20110000   337.57585      0              248.43752      547.29361     -0.08083626   
  20120000   292.26983      0              259.82355      518.57021      1.2399948    
  20130000   320.7733       0              236.66089      520.64168      0.32585622   
  20140000   286.97407      0              246.50689      500.56521      0.72488056   
  20150000   276.10603      0              286.83507      531.2719      -0.64262513   
  20160000   295.3321       0              274.87362      536.33131     -0.25566217   
  20170000   300.49253      0              271.77451      537.80073      1.5916625    
  20180000   295.56999      0              249.14293      510.81122     -0.41009685   
  20190000   306.91282      0              254.31395      526.02405     -1.7193939    
  20200000   299.13175      0              253.05711      517.87862      0.71573102   
  20210000   308.05206      0              253.39948      526.11815     -1.6835742    
  20220000   278.1662       0              262.57272      508.83342     -0.37378109   
  20230000   319.58274      0              241.03789      523.96467      0.47088463   
  20240000   270.71067      0              254.40297      494.06328      1.3252943    
  20250000   310.87059      0              264.63537      539.84928     -1.0923469    
  20260000   279.30629      0              250.37694      497.64697     -0.58034531   
  20270000   294.33815      0              248.53663      509.11437      0.58404231   
  20280000   301.31284      0              264.22492      530.97735     -0.080609073  
  20290000   282.98713      0              265.07339      515.60206      0.53972401   
  20300000   299.35269      0              266.51933      531.53644     -0.91620635   
  20310000   298.17807      0              275.92139      539.89862      0.83762172   
  20320000   301.35915      0              272.27298      539.06641     -0.57615934   
  20330000   306.40754      0              260.57619      531.83896     -0.97707385   
  20340000   287.15254      0              280.30278      534.51909      1.731506     
  20350000   310.63971      0              248.54876      523.55827     -0.42054619   
  20360000   291.98697      0              260.24831      518.74454      2.6795292    
  20370000   294.62502      0              253.84907      514.68078     -0.96438723   
  20380000   308.57341      0              272.52701      545.70723      0.20723831   
  20390000   306.88705      0              261.73559      533.42288      0.048768324  
  20400000   310.34861      0              265.9833       540.73511     -3.208145     
  20410000   316.60416      0              290.20459      570.49443      1.1733446    
  20420000   312.80637      0              256.33385      533.26151      0.79243712   
  20430000   325.31791      0              292.62008      580.62421     -0.80053488   
  20440000   309.72767      0              264.93496      539.13705     -1.5847428    
  20450000   314.83493      0              265.29611      544.01966      0.12243404   
  20460000   287.18847      0              271.19358      525.4417      -0.32731723   
  20470000   305.59084      0              253.7125       524.25225      0.083098163  
  20480000   306.74682      0              253.40527      524.96841      1.554777     
  20490000   333.27809      0              254.25698      549.30826     -0.44531947   
  20500000   279.34946      0              273.88201      521.19025     -0.3496586    
  20510000   308.57883      0              250.44546      523.63048     -1.5585444    
  20520000   312.16257      0              274.11109      550.46879      0.19116678   
  20530000   295.92898      0              283.30204      545.28813      0.60799617   
  20540000   305.29227      0              257.88672      528.16215     -0.071640998  
  20550000   326.4233       0              271.09119      560.07393     -1.0165743    
  20560000   283.75623      0              249.3658       500.57535     -0.15675197   
  20570000   298.4874       0              280.46539      544.71646     -1.2067938    
  20580000   304.90521      0              246.02996      515.96273     -1.6417483    
  20590000   316.22762      0              276.7116       556.6681      -0.44702807   
  20600000   284.72114      0              291.09718      543.16098     -2.3144963    
  20610000   305.27582      0              259.65885      529.91972     -0.18432411   
  20620000   291.43222      0              268.41024      526.41535     -1.0757339    
  20630000   292.34591      0              274.86738      533.68138     -1.025704     
  20640000   288.86168      0              249.75665      505.48607      0.64607759   
  20650000   285.37271      0              271.38193      524.02256      0.089112118  
  20660000   284.78986      0              274.46783      526.59246     -1.1255175    
  20670000   304.59179      0              259.608        529.26329      0.3307054    
  20680000   297.21984      0              234.20617      497.33507     -0.0035386639 
  20690000   269.90329      0              265.41101      504.35655     -1.6682503    
  20700000   308.01284      0              295.32762      568.01157      0.60794052   
  20710000   311.09016      0              282.67983      558.08813     -0.43184295   
  20720000   301.02598      0              271.12783      537.62631      0.57597179   
  20730000   306.65341      0              249.42889      520.90934      0.87290561   
  20740000   308.81408      0              241.44196      514.83525      0.35846083   
  20750000   274.5522       0              264.1992       507.26043      0.85377934   
  20760000   285.90746      0              275.90631      529.02036     -0.64756014   
  20770000   306.4006       0              249.58483      520.84146      0.43777006   
  20780000   298.63696      0              256.48733      520.87081      0.53253421   
  20790000   321.1721       0              253.87011      538.20396     -0.30560271   
  20800000   312.98432      0              253.55405      530.63925      0.8685514    
  20810000   303.18774      0              247.17859      515.59088     -1.0256904    
  20820000   303.66389      0              247.20073      516.03455      1.3869655    
  20830000   290.70406      0              248.87059      506.23106     -1.0322886    
  20840000   296.13064      0              270.81749      532.98211      0.058502587  
  20850000   304.16754      0              274.33068      543.61038      3.4242501    
  20860000   294.18477      0              262.88062      523.32257     -0.6267596    
  20870000   312.81945      0              279.57724      556.51648      1.889908     
  20880000   302.04302      0              290.91672      558.31558      2.6660851    
  20890000   300.85913      0              253.69577      520.04653     -0.14783542   
  20900000   293.85404      0              272.1423       532.29145     -2.1022276    
  20910000   305.59139      0              276.55432      547.09456     -1.8368803    
  20920000   296.95454      0              271.27726      534.17128      0.71612634   
  20930000   310.93011      0              248.15707      523.42367     -0.88713954   
  20940000   305.23808      0              272.08662      542.31406      0.077294506  
  20950000   304.00728      0              268.96134      538.09916      0.38709652   
  20960000   310.27561      0              263.16451      537.85169     -0.73329937   
  20970000   297.36463      0              272.5351       535.79219      1.24819      
  20980000   292.85117      0              264.78633      524.04764     -0.78580688   
  20990000   301.87678      0              252.6126       519.86428     -0.20972966   
  21000000   301.80573      0              253.78319      520.97198      0.65855766   
  21010000   297.08248      0              277.5393       540.54659      2.3852177    
  21020000   300.14973      0              270.58164      536.30436     -0.18335289   
  21030000   296.39555      0              265.40276      527.80191      0.28970642   
  21040000   305.25421      0              282.71539      552.95712      0.98670685   
  21050000   292.75513      0              250.61791      509.7942       1.4489136    
  21060000   282.53113      0              272.58966      522.71463     -1.5032976    
  21070000   288.2691       0              269.8528       525.0576       0.14559083   
  21080000   292.75101      0              263.00893      522.18157      1.1190998    
  21090000   326.07355      0              276.63237      565.30547      0.78966104   
  21100000   313.19862      0              274.50353      551.77845     -0.91072339   
  21110000   294.08217      0              257.56823      517.91935      0.74612888   
  21120000   265.71077      0              249.55705      484.79095     -0.60793338   
  21130000   302.5725       0              261.86122      529.72883      0.62926436   
  21140000   308.97854      0              242.63271      516.17159     -0.56947662   
  21150000   288.93918      0              309.9542       565.75222      0.11332169   
  21160000   302.48724      0              258.36676      526.1589       0.85245755   
  21170000   314.17132      0              254.85288      532.98893     -0.11032107   
  21180000   305.42178      0              241.43383      511.82391      1.0745546    
  21190000   295.01261      0              255.65089      516.82573      0.30749512   
  21200000   332.35445      0              258.00132      552.23491      0.13542264   
  21210000   313.27747      0              261.60199      538.94672     -1.1078499    
  21220000   307.54303      0              257.14438      529.41241     -1.1006076    
  21230000   286.89259      0              253.61764      507.60382     -1.0652909    
  21240000   298.053        0              258.0514       521.9179       0.46656165   
  21250000   306.19336      0              242.99268      514.06585     -0.036211958  
  21260000   302.82072      0              251.9491       520.03646     -0.21924075   
  21270000   311.01582      0              276.52654      551.86903     -0.85865154   
  21280000   311.32523      0              265.48745      541.10385      0.065421627  
  21290000   296.43278      0              271.21778      533.64989     -0.94960311   
  21300000   292.97499      0              267.56469      526.93562     -1.7432965    
  21310000   297.97522      0              259.8121       523.60974     -1.1028402    
  21320000   288.66796      0              267.3555       522.91341      0.66893244   
  21330000   303.84965      0              254.81176      523.81003      0.96548905   
  21340000   307.59485      0              264.36923      536.68313      0.35178311   
  21350000   290.58717      0              265.69251      522.94951      1.0078762    
  21360000   342.19737      0              255.06234      558.00988      1.1297044    
  21370000   284.8805       0              255.55436      507.75924     -0.57312685   
  21380000   296.27011      0              278.2571       540.5452       0.37644378   
  21390000   302.95852      0              248.50027      516.70963      0.42408804   
  21400000   299.44212      0              260.69916      525.79544     -1.4631389    
  21410000   305.13637      0              273.83785      543.97525     -0.74842453   
  21420000   324.68217      0              268.79122      556.23254     -0.92827468   
  21430000   292.56807      0              250.7039       509.71458      0.36169699   
  21440000   331.22873      0              245.74215      538.97914      0.35432851   
  21450000   285.97983      0              284.62009      537.7982       0.78936917   
  21460000   320.92578      0              245.75658      529.87235     -0.039228932  
  21470000   292.3143       0              238.90115      497.68717      0.0059176827 
  21480000   279.06661      0              262.1309       509.18874     -1.2395962    
  21490000   282.60937      0              254.39507      504.58931     -0.45421001   
  21500000   320.0125       0              250.6325       533.93976     -0.53056408   
  21510000   302.24701      0              273.59604      541.17549     -2.1114198    
  21520000   287.85098      0              240.91163      495.74627      1.1214434    
  21530000   293.5282       0              253.37419      513.23487     -0.0086167631 
  21540000   286.64627      0              245.8492       499.61731     -0.12460487   
  21550000   318.5735       0              248.32551      530.35882      0.91999851   
  21560000   322.59453      0              266.01827      551.6114       1.1032622    
  21570000   301.30455      0              279.03381      545.77891      1.931675     
  21580000   289.50135      0              253.67959      509.97531     -0.32660549   
  21590000   289.38643      0              247.33933      503.53331     -0.71552787   
  21600000   299.20977      0              259.85965      524.75023     -0.57350723   
  21610000   325.1545       0              254.96325      542.82272     -0.32149772   
  21620000   287.49369      0              263.61351      518.13184     -0.90837727   
  21630000   296.07296      0              267.90501      530.01857      2.0472444    
  21640000   317.26985      0              282.37         563.24918      0.53981729   
  21650000   298.10711      0              273.2356       537.15        -0.77906115   
  21660000   298.6277       0              246.28271      510.65798     -0.92798266   
  21670000   279.92099      0              269.18082      516.99504      1.4729196    
  21680000   314.02787      0              282.0491       560.05816     -0.26242494   
  21690000   287.21802      0              255.83755      510.11183      0.15400358   
  21700000   328.34453      0              288.64303      579.32664      0.35279281   
  21710000   297.72456      0              259.71487      523.29059     -0.21364172   
  21720000   322.74989      0              269.4293       555.15997      0.71577535   
  21730000   305.84788      0              259.45867      530.22598     -0.36129232   
  21740000   309.79787      0              266.98003      541.24427      1.3461257    
  21750000   299.8431       0              273.68601      539.13729     -1.9150086    
  21760000   326.20221      0              241.82261      530.60962     -0.05527004   
  21770000   302.86401      0              269.4501       537.57578     -1.6399253    
  21780000   291.87522      0              276.33047      534.72777     -0.30668604   
  21790000   311.82693      0              241.81777      517.87833      2.4255727    
  21800000   300.75378      0              262.67994      528.93744     -0.10684583   
  21810000   297.74934      0              249.02803      512.62569     -0.049994694  
  21820000   293.05203      0              259.17559      518.61473      0.48918249   
  21830000   293.61767      0              260.02612      519.96601      0.68439822   
  21840000   328.13131      0              279.6073       570.10214     -1.0797266    
  21850000   319.7831       0              260.94547      544.04964      0.36578044   
  21860000   312.01513      0              259.89384      536.12102      0.30916596   
  21870000   310.44297      0              266.63378      541.46912     -0.31860072   
  21880000   301.3334       0              246.7255       513.49614     -0.62324511   
  21890000   320.86731      0              281.13497      565.19899      0.64863459   
  21900000   315.34321      0              269.18198      548.35551      0.079711329  
  21910000   299.42237      0              261.23775      526.31655      0.016391456  
  21920000   279.64546      0              272.06086      519.63116      0.80592061   
  21930000   282.5966       0              289.54653      539.72947     -1.2208228    
  21940000   293.23235      0              261.04808      520.64685      0.76921968   
  21950000   277.06312      0              246.46335      491.74749     -0.44570489   
  21960000   276.28526      0              266.25791      510.85341      1.1047732    
  21970000   289.31919      0              267.97063      524.10508      0.92544334   
  21980000   302.79249      0              259.53839      527.60076     -1.1597517    
  21990000   293.73568      0              256.13571      516.18008      1.0750074    
  22000000   300.59481      0              272.02391      538.14066     -0.65276027   
  22010000   294.08904      0              253.15541      513.51261     -1.0377178    
  22020000   303.14636      0              292.9469       561.32255      0.7420296    
  22030000   292.64886      0              253.84037      512.92258      0.75737237   
  22040000   301.47184      0              263.62825      530.52145     -1.4411667    
  22050000   301.17248      0              270.24472      536.87289     -1.5845746    
  22060000   299.5254       0              246.06907      511.23909      0.84051913   
  22070000   333.7934       0              264.45408      559.96157      2.1840857    
  22080000   288.33163      0              252.85086      508.11102     -1.0519101    
  22090000   286.91533      0              265.87717      519.88348      0.1593491    
  22100000   302.0751       0              286.67126      554.09852      1.2359925    
  22110000   298.24341      0              270.51447      534.54954      1.7462801    
  22120000   301.0767       0              241.23157      507.77495      0.14433739   
  22130000   322.94497      0              247.05943      532.9628      -0.18691436   
  22140000   301.45012      0              265.57216      532.44612     -1.4897541    
  22150000   289.92324      0              270.43908      527.10829     -1.0790326    
  22160000   313.65126      0              252.90005      530.57569      1.5806429    
  22170000   284.47833      0              263.01594      514.86477      0.58142995   
  22180000   290.58763      0              262.68765      519.94504      0.66744917   
  22190000   312.75726      0              283.02231      559.90649     -0.24459117   
  22200000   288.11199      0              267.86794      522.93365     -1.1192348    
  22210000   309.06848      0              275.12424      548.74275      1.3591422    
  22220000   311.1879       0              260.88983      536.38465      0.48670531   
  22230000   285.40376      0              266.91205      519.58016     -1.4554296    
  22240000   307.95633      0              257.51292      530.14684      0.77509199   
  22250000   306.7219       0              240.22177      511.76285      0.094987659  
  22260000   287.17922      0              282.77413      537.01406     -1.7555599    
  22270000   336.3243       0              246.93579      544.68389     -0.20709637   
  22280000   292.33938      0              258.41752      517.22574      0.87838201   
  22290000   278.76568      0              259.9301       506.72152     -0.64110622   
  22300000   284.5849       0              259.53021      511.47338     -1.0265295    
  22310000   283.42108      0              275.73205      526.64489      0.11688788   
  22320000   284.51418      0              269.79044      521.67101      0.0020323154 
  22330000   316.87054      0              286.07044      566.59612      0.57678036   
  22340000   294.3731       0              247.94454      508.55321      1.1192184    
  22350000   298.4148       0              259.98979      524.17658      0.81085402   
  22360000   303.94926      0              238.2094       507.29585     -1.0409328    
  22370000   272.33928      0              271.57245      512.67458      0.48133161   
  22380000   313.28129      0              274.77899      552.1271      -0.62701495   
  22390000   315.17169      0              262.32896      541.35064      0.20605715   
  22400000   300.07439      0              276.62886      542.28489     -1.9464759    
  22410000   308.31054      0              263.24166      536.18916     -0.61745146   
  22420000   310.19531      0              275.6244       550.2405      -1.8362373    
  22430000   297.25855      0              256.08201      519.24517     -0.77005031   
  22440000   301.97431      0              282.01278      549.35081     -0.086130487  
  22450000   295.7233       0              257.62882      519.43283      0.37023566   
  22460000   318.28382      0              268.58033      550.35718      1.5741795    
  22470000   329.83774      0              282.07447      574.08001     -0.44477545   
  22480000   298.04254      0              268.57946      532.4367      -0.0065637652 
  22490000   286.23517      0              260.306        513.71016      0.51495881   
  22500000   283.88928      0              257.818        509.14535     -0.23370354   
  22510000   289.24901      0              277.16579      533.23811      0.20032882   
  22520000   289.59885      0              271.69838      528.08041     -1.5650327    
  22530000   297.78739      0              254.13228      517.76363     -0.53231538   
  22540000   272.1469       0              279.53495      520.46676      1.0483844    
  22550000   287.87973      0              280.79094      535.65103     -0.93267272   
  22560000   302.01522      0              263.53328      530.90753     -1.4961669    
  22570000   317.42043      0              264.25019      545.26269      0.10833188   
  22580000   295.47938      0              263.76019      525.34826     -0.83661263   
  22590000   272.28705      0              248.704        489.75988      0.75102659   
  22600000   322.70305      0              274.99712      560.68632      0.30107702   
  22610000   297.93485      0              255.81749      519.57939      2.1762505    
  22620000   309.96416      0              261.9273       536.33876      0.043989838  
  22630000   288.34553      0              273.57638      528.84885     -0.41304957   
  22640000   280.07252      0              254.82056      502.76893      0.93153943   
  22650000   322.21745      0              251.77042      537.02972     -0.50433749   
  22660000   297.33936      0              266.61252      529.84723      0.052297499  
  22670000   309.34697      0              253.04142      526.90647     -1.9308966    
  22680000   293.83112      0              268.50662      528.63548      0.75447537   
  22690000   317.654        0              259.41266      540.63193     -0.053710036  
  22700000   297.01209      0              260.98439      523.92936     -0.78424413   
  22710000   281.01979      0              262.9741       511.76108      0.71521928   
  22720000   288.39693      0              254.18277      509.50074      0.25785865   
  22730000   307.09893      0              278.95951      550.83437     -1.8371509    
  22740000   279.40639      0              248.0782       495.43684     -1.2215377    
  22750000   300.31712      0              266.30196      532.17288      0.16233573   
  22760000   303.55859      0              273.74989      542.49048     -0.41309192   
  22770000   330.33184      0              275.95482      568.39779      1.073547     
  22780000   283.1936       0              254.30207      505.01353      0.42780405   
  22790000   293.31869      0              268.20193      527.87713     -0.84642813   
  22800000   292.95005      0              270.23863      529.58747      2.85736      
  22810000   285.51643      0              250.831        503.59886     -1.0203913    
  22820000   272.66742      0              227.77141      469.16403      0.26059015   
  22830000   288.1205       0              269.86467      524.93792     -0.41882099   
  22840000   299.73046      0              257.74256      523.09411     -0.12712018   
  22850000   291.97349      0              292.39675      550.88105     -1.8358397    
  22860000   289.64162      0              286.00835      542.42824      0.63522242   
  22870000   292.04999      0              258.04         516.59202     -0.097654308  
  22880000   299.98945      0              275.32659      540.90742     -0.53412133   
  22890000   302.2681       0              277.22252      544.82064     -0.080993072  
  22900000   290.3081       0              245.76664      502.77658     -0.30263783   
  22910000   317.99945      0              266.64654      548.17164     -0.61220524   
  22920000   295.34068      0              271.85662      533.3219      -1.1903892    
  22930000   313.01351      0              285.32711      562.43815      0.053056524  
  22940000   295.28334      0              261.55247      522.96698     -0.1570509    
  22950000   318.4853       0              242.08886      524.04408      0.1435372    
  22960000   298.73898      0              242.03264      506.50643      2.2907113    
  22970000   295.07178      0              256.18065      517.40787      1.2214349    
  22980000   321.66268      0              267.82648      552.59464     -0.244557     
  22990000   294.78176      0              281.23985      542.21031      0.71002722   
  23000000   294.74882      0              276.59016      537.53146      0.10060443   
  23010000   294.01751      0              262.89888      523.19275      0.31024884   
  23020000   300.02406      0              282.07424      547.68572      1.1128729    
  23030000   278.73677      0              260.22003      506.98585      0.83630611   
  23040000   297.94867      0              257.52684      521.30098     -0.13382684   
  23050000   301.83362      0              261.50351      528.71699      0.48999366   
  23060000   307.36314      0              296.33598      568.44474     -0.17384682   
  23070000   303.75184      0              254.34131      523.25299     -1.4202744    
  23080000   279.95669      0              245.84456      493.69038      0.74656028   
  23090000   327.30858      0              280.95147      570.71795     -2.737996     
  23100000   295.06571      0              290.30944      551.53128      2.2227818    
  23110000   319.314        0              286.13161      568.82048      0.85101188   
  23120000   312.23645      0              241.95256      518.37568     -0.16118371   
  23130000   313.042        0              243.41364      520.5499      -1.1136425    
  23140000   304.22128      0              239.65272      508.98        -0.19164992   
  23150000   313.36657      0              267.43485      544.85846      0.77348179   
  23160000   274.04052      0              278.84188      521.45012     -0.45176065   
  23170000   305.39802      0              262.69801      533.06705     -0.75318498   
  23180000   295.78095      0              266.33695      528.192        0.80691492   
  23190000   308.46505      0              273.6762       546.76049     -1.6312079    
  23200000   322.06973      0              248.28953      533.41805     -0.68214054   
  23210000   302.14115      0              260.11489      527.60062      0.52084215   
  23220000   279.66094      0              256.55511      504.1391      -0.31585085   
  23230000   324.12428      0              275.16521      562.11263     -1.1893023    
  23240000   294.07146      0              277.9604       538.30203      0.11986339   
  23250000   291.89445      0              277.51867      535.93299     -2.2980468    
  23260000   296.32718      0              265.07504      527.41366      0.083375116  
  23270000   280.81782      0              269.21266      517.82084     -1.002419     
  23280000   294.54538      0              274.79739      535.55858      0.58166912   
  23290000   302.81725      0              274.98237      543.06666     -2.2791535    
  23300000   299.08754      0              261.57038      526.35275     -0.21164      
  23310000   320.41058      0              256.96825      540.62792      0.32574702   
  23320000   295.10543      0              230.08842      491.34543      1.0884948    
  23330000   296.76617      0              268.73292      531.46018      0.66556864   
  23340000   311.84102      0              255.95072      532.02376     -0.60863491   
  23350000   333.10214      0              280.46506      575.36058      0.23968256   
  23360000   308.44293      0              261.91246      534.97717      0.097304196  
  23370000   318.83181      0              238.40403      520.66602     -0.50721972   
  23380000   286.36137      0              248.08678      501.60267      0.024675741  
  23390000   323.5085       0              273.33994      559.7422      -0.43289779   
  23400000   308.88789      0              245.94084      519.39947     -0.42502935   
  23410000   304.63211      0              252.91947      522.61045      0.84987641   
  23420000   284.05379      0              252.4901       503.96309     -0.066666841  
  23430000   317.89984      0              259.52858      540.96549      0.32222822   
  23440000   313.02078      0              282.05734      559.17482      0.5187875    
  23450000   307.33033      0              266.10323      538.18296      0.83235728   
  23460000   321.67103      0              255.39047      540.16602     -1.5986097    
  23470000   320.0733       0              249.0836       532.44468      0.25664627   
  23480000   316.08608      0              263.9716       543.80279     -1.2433328    
  23490000   335.98834      0              263.27159      560.72226     -0.79402279   
  23500000   274.36584      0              243.50664      486.40288     -1.5129454    
  23510000   294.86188      0              254.16177      515.20316      1.6318647    
  23520000   297.99284      0              259.86468      523.67791      2.039898     
  23530000   289.98188      0              265.92967      522.6508      -2.1005975    
  23540000   293.21649      0              255.42241      515.00714      0.66410488   
  23550000   291.99466      0              255.36669      513.86973     -1.7084735    
  23560000   313.21039      0              259.55033      536.83567     -0.86602696   
  23570000   295.56118      0              268.48158      530.14206      0.96072998   
  23580000   282.13149      0              254.67091      504.44208     -0.90098925   
  23590000   285.22538      0              287.97061      540.48081     -0.81498589   
  23600000   303.50661      0              271.85434      540.54892      1.6052308    
  23610000   300.17615      0              243.17953      508.92564     -2.3217662    
  23620000   308.51006      0              267.21377      540.3379       0.33242495   
  23630000   317.92933      0              266.13633      547.59935      0.68631767   
  23640000   300.30206      0              256.34209      522.19968     -0.31983494   
  23650000   275.79579      0              250.15175      494.31392     -0.31006333   
  23660000   306.46549      0              255.00553      526.31961      0.83903671   
  23670000   296.36324      0              249.88571      512.25626     -3.1354159    
  23680000   287.28387      0              275.60303      529.93561     -0.9712119    
  23690000   323.73661      0              250.76465      537.36886     -0.030733322  
  23700000   289.28135      0              271.35849      527.45943     -2.1707105    
  23710000   302.23136      0              278.96832      546.53392     -0.18115987   
  23720000   300.95039      0              274.04182      540.47338     -0.069793017  
  23730000   295.56538      0              263.90509      525.56929      0.52344607   
  23740000   284.34721      0              262.56554      514.2983       0.47869054   
  23750000   302.69693      0              241.97823      509.956        0.46431625   
  23760000   314.1883       0              274.86641      553.0175      -1.2424011    
  23770000   316.12479      0              273.57111      553.43657      1.1999851    
  23780000   320.90119      0              242.7428       526.83681      0.39843981   
  23790000   299.56403      0              256.19343      521.39764      1.0231042    
  23800000   283.83117      0              277.48157      528.75747      1.8325692    
  23810000   293.26716      0              279.61519      539.24478      0.99410479   
  23820000   298.55486      0              251.88434      516.19514      0.93058151   
  23830000   281.32378      0              268.64974      517.70584      0.96768511   
  23840000   300.37114      0              268.58948      534.50822      0.47463411   
  23850000   305.18608      0              267.16612      537.34754     -0.30340813   
  23860000   286.32716      0              253.85037      507.33598     -0.0028713712 
  23870000   302.01602      0              272.43514      539.8101       0.98379785   
  23880000   322.54971      0              276.59444      562.14789      0.84142414   
  23890000   301.09641      0              274.16439      540.72521     -0.070398485  
  23900000   285.979        0              270.52973      523.70711      0.50166798   
  23910000   308.77868      0              261.72248      535.08443     -2.1097689    
  23920000   293.23083      0              263.19065      522.78808     -0.69752442   
  23930000   306.03117      0              252.88265      523.81222     -1.2784342    
  23940000   305.58662      0              248.5917       519.12772      0.55601657   
  23950000   289.42751      0              256.23974      512.47008      0.56330567   
  23960000   287.51886      0              249.94171      504.48232     -1.9955434    
  23970000   292.1551       0              272.27992      530.925       -0.25117536   
  23980000   343.24866      0              257.02595      560.90419     -0.73655687   
  23990000   318.85883      0              265.92331      548.20923      0.27692335   
  24000000   321.21419      0              263.12972      547.50083      1.4441388    
  24010000   308.86701      0              264.8332       538.27335     -0.12399305   
  24020000   327.22397      0              243.04534      532.73692     -1.5545476    
  24030000   288.70176      0              267.05015      522.63799      0.39270277   
  24040000   289.58998      0              268.76441      525.13859     -0.56024085   
  24050000   285.04545      0              284.31598      536.66688     -2.0993365    
  24060000   281.88896      0              240.82619      490.38265     -1.1985086    
  24070000   306.15356      0              243.97239      515.01031      2.4217887    
  24080000   291.109        0              271.5933       529.31227      0.97887745   
  24090000   301.79419      0              271.62812      538.80669     -0.13568988   
  24100000   295.41207      0              242.25953      503.78801     -1.8825543    
  24110000   283.83995      0              261.36536      512.64904     -0.63230268   
  24120000   308.28128      0              253.46512      526.38672     -0.15814832   
  24130000   317.95189      0              268.40164      549.88463      0.085932464  
  24140000   310.27178      0              261.81443      536.49822      0.30759577   
  24150000   303.12308      0              254.53673      522.89176     -0.1117593    
  24160000   313.75344      0              267.08533      544.85144      0.75088912   
  24170000   308.108        0              278.0219       550.79009      0.31229964   
  24180000   298.99259      0              273.12151      537.81983      0.6716325    
  24190000   273.62438      0              266.72342      508.96324      1.0225946    
  24200000   308.37158      0              252.75191      525.75345     -1.1556144    
  24210000   292.17847      0              272.36002      531.02579     -3.3386698    
  24220000   279.90668      0              279.10195      526.9035       0.91617921   
  24230000   301.11139      0              234.53684      501.11093      1.8191681    
  24240000   332.37919      0              261.03105      555.28654     -0.96738071   
  24250000   315.59095      0              272.56953      551.96239     -0.2807272    
  24260000   295.3903       0              250.28868      511.79789      1.1113081    
  24270000   286.91091      0              290.54204      544.54444      2.0260503    
  24280000   298.50624      0              248.04857      512.31632     -1.0348561    
  24290000   315.81293      0              248.14141      527.73078      0.81633406   
  24300000   289.23505      0              270.08849      526.14845     -2.2054666    
  24310000   294.04591      0              253.71923      514.03824     -0.25853713   
  24320000   302.62751      0              279.67171      547.58803      1.6106918    
  24330000   278.84811      0              249.74917      496.61357     -1.5475681    
  24340000   298.48471      0              232.04421      496.2929       1.3919488    
  24350000   327.77945      0              279.21065      569.39399     -0.1125379    
  24360000   304.54585      0              266.15111      535.76574      0.73073434   
  24370000   302.74428      0              252.45358      520.47327      1.1311585    
  24380000   301.91954      0              255.53899      522.82853      0.080305521  
  24390000   301.86123      0              260.12599      527.36391     -0.72332295   
  24400000   327.4211       0              276.88073      566.74682      0.62276759   
  24410000   320.17774      0              275.13135      558.58489     -0.056424303  
  24420000   315.65379      0              258.39441      537.8429       0.76285197   
  24430000   346.31763      0              285.04475      591.63996      0.6424883    
  24440000   284.52588      0              277.31374      529.20466      0.71682772   
  24450000   294.36894      0              267.46404      528.06904     -1.0510992    
  24460000   306.01072      0              274.88586      545.79732      1.2520304    
  24470000   294.83561      0              268.85088      529.86901      0.33173184   
  24480000   293.61265      0              264.67209      524.60754      0.099133256  
  24490000   303.66151      0              250.036        518.86771     -0.72716178   
  24500000   321.64006      0              258.62979      543.37792     -0.52808823   
  24510000   307.5564       0              256.60145      528.88131     -0.24309384   
  24520000   281.15405      0              251.86686      500.77271      0.74498838   
  24530000   299.87528      0              246.54856      512.02832      0.64934442   
  24540000   321.39011      0              279.88915      564.416       -0.33630975   
  24550000   311.64696      0              286.40367      562.3049       1.4094064    
  24560000   312.5219       0              252.7179       529.39373      1.4389843    
  24570000   285.80315      0              259.86374      512.88543     -0.065335839  
  24580000   321.19762      0              255.82822      540.18466     -0.30390495   
  24590000   301.01916      0              273.67812      540.17056     -0.77013779   
  24600000   295.74528      0              287.45435      549.27782     -0.32464549   
  24610000   289.63284      0              269.07208      525.4842      -0.89501462   
  24620000   301.31055      0              276.55166      543.30206      0.4051733    
  24630000   298.16861      0              264.39568      528.36452      0.86532594   
  24640000   314.42644      0              247.34331      525.70522      1.8660104    
  24650000   316.53803      0              284.77926      565.01057     -1.4612024    
  24660000   301.92222      0              294.60422      561.89613     -0.8178572    
  24670000   298.61286      0              265.00362      529.36576     -1.0584222    
  24680000   329.66655      0              268.05603      559.91002     -1.0500944    
  24690000   292.51192      0              282.25015      541.21113     -1.2570133    
  24700000   295.37723      0              279.39429      540.89192     -0.67799416   
  24710000   316.5685       0              257.34059      537.59887      0.53438032   
  24720000   304.85175      0              266.2291       536.11454      0.47629413   
  24730000   308.62775      0              279.38475      552.61307      0.31388487   
  24740000   302.03293      0              245.45763      512.84756      0.038320822  
  24750000   296.5321       0              247.54138      510.06142     -0.066340253  
  24760000   311.19787      0              274.64349      550.14715     -0.62873374   
  24770000   299.94951      0              256.1977       521.74318      1.3392453    
  24780000   300.01868      0              266.22893      531.83564      0.20244679   
  24790000   312.05103      0              259.4133       535.67226     -1.43928      
  24800000   334.07234      0              283.93425      579.68869     -1.2721057    
  24810000   318.05475      0              270.16506      551.73912      0.83218088   
  24820000   295.02315      0              239.28266      500.46682     -1.1212119    
  24830000   294.00699      0              251.55281      511.83736      0.21576919   
  24840000   299.28841      0              260.91431      525.87452     -0.48731478   
  24850000   288.70038      0              260.04363      515.63024     -1.8514604    
  24860000   324.2724       0              243.14035      530.21889      0.045476108  
  24870000   315.90422      0              257.54316      537.21334     -0.55371192   
  24880000   310.236        0              260.73878      535.39089      0.47036862   
  24890000   291.20222      0              284.26789      542.06938     -1.4790495    
  24900000   287.88909      0              250.70447      505.57285      1.3056387    
  24910000   310.8752       0              275.41219      550.63018     -0.02360561   
  24920000   311.91018      0              259.35504      535.48931     -1.3320288    
  24930000   306.86893      0              247.78341      519.45465      0.75930216   
  24940000   303.02214      0              269.62006      537.88574      1.9013583    
  24950000   296.51128      0              239.86463      502.36625      0.73881835   
  24960000   296.76761      0              272.67936      535.4079      -1.1248106    
  24970000   287.32713      0              261.06426      515.43514     -1.1058774    
  24980000   295.70014      0              253.27691      515.06042     -0.88743687   
  24990000   299.21654      0              270.98502      535.8816       0.4058075    
  25000000   323.07962      0              267.05984      553.08241      1.1233485    
  25010000   306.60356      0              278.33004      549.76636     -1.8594548    
  25020000   297.82843      0              279.34348      543.01116     -0.81475016   
  25030000   298.16649      0              274.19122      538.15819     -1.9435036    
  25040000   310.57183      0              258.23934      533.18876     -0.21483788   
  25050000   283.97794      0              261.34083      512.74666      0.25057644   
  25060000   319.49302      0              271.50752      554.35488      1.1611336    
  25070000   291.66528      0              249.65004      507.86149     -0.8117952    
  25080000   293.09995      0              269.8547       529.33626     -0.05002082   
  25090000   283.32249      0              286.76853      537.5941      -1.2196813    
  25100000   319.18265      0              241.4003       523.97289     -0.089657838  
  25110000   280.76268      0              259.03001      507.58937     -1.256161     
  25120000   298.57715      0              262.76314      527.09367      1.7767309    
  25130000   284.50002      0              253.50602      505.37405      0.57696209   
  25140000   323.4921       0              260.97655      547.3643       0.99737139   
  25150000   293.75598      0              261.46858      521.53092      0.28828095   
  25160000   309.56187      0              274.5519       548.60721      0.86151323   
  25170000   289.62591      0              278.85604      535.26203     -0.93864404   
  25180000   304.40505      0              254.95427      524.44424      0.33243955   
  25190000   286.39472      0              270.61921      524.16462     -1.2209211    
  25200000   285.37442      0              257.68994      510.33208      0.4530748    
  25210000   295.17368      0              261.80267      523.12011      1.7114614    
  25220000   282.60473      0              259.38802      509.57815     -0.874699     
  25230000   280.75524      0              271.34828      519.90106     -0.46464475   
  25240000   311.49727      0              281.93028      557.69899     -1.0851056    
  25250000   318.86472      0              262.12714      544.41826     -0.085343922  
  25260000   322.3986       0              251.66268      537.08234      0.25902795   
  25270000   298.20016      0              275.25805      539.25483      0.17506387   
  25280000   264.70528      0              257.16156      491.5053       1.1726975    
  25290000   296.59774      0              253.66343      516.24159     -0.028130758  
  25300000   297.71261      0              273.83142      537.39657     -0.072396561  
  25310000   324.83644      0              251.14042      538.71831     -0.26484261   
  25320000   277.17982      0              253.05174      498.4392       0.2796122    
  25330000   303.83538      0              295.69576      564.6814      -0.26996797   
  25340000   308.32485      0              265.99303      538.9532      -1.7034238    
  25350000   284.67581      0              268.76619      520.78985      1.2325807    
  25360000   306.25739      0              282.63108      553.76092     -0.3941591    
  25370000   303.46746      0              255.27387      523.93379     -1.5254946    
  25380000   306.01074      0              235.04016      505.95165     -0.29604225   
  25390000   314.45843      0              251.65934      530.04958     -1.9125978    
  25400000   318.6223       0              293.30085      575.37736     -1.3584996    
  25410000   305.68476      0              265.45268      536.07558     -0.28101791   
  25420000   325.98807      0              269.0496       557.64703      0.61634226   
  25430000   297.3108       0              252.23645      515.44588     -1.3835186    
  25440000   284.11312      0              256.77361      508.29912     -0.27693734   
  25450000   304.55182      0              251.93771      521.55761     -0.67605723   
  25460000   304.96841      0              259.82493      529.81364     -0.059538826  
  25470000   304.79892      0              255.10334      524.942       -0.63040305   
  25480000   301.82487      0              256.30832      523.51406     -0.71060027   
  25490000   328.66636      0              252.09112      543.05964     -0.84302994   
  25500000   302.53632      0              286.56144      554.39702     -0.54861005   
  25510000   293.56791      0              262.27278      522.16863      0.69589422   
  25520000   298.96329      0              244.21011      508.88248      0.26408504   
  25530000   292.22799      0              256.08194      514.79155      0.75895342   
  25540000   299.41834      0              268.22836      533.3036      -0.41292472   
  25550000   300.50656      0              241.76765      507.80628     -1.8684881    
  25560000   296.43442      0              273.42245      535.85602     -0.040480515  
  25570000   275.99583      0              273.86892      518.20818     -1.3658123    
  25580000   310.81276      0              274.69331      549.85602     -1.8590037    
  25590000   306.56126      0              256.71548      528.11435     -0.34819172   
  25600000   315.81293      0              270.25332      549.84269     -0.14550074   
  25610000   312.43656      0              253.1567       529.75697      1.1223053    
  25620000   310.17615      0              273.39771      547.99684     -0.58467929   
  25630000   310.45036      0              255.1918       530.03369      1.2391234    
  25640000   274.26437      0              248.19291      490.99932      0.61016518   
  25650000   307.378        0              265.4169       537.53882      0.97144636   
  25660000   281.74887      0              262.67989      512.11233     -0.31365148   
  25670000   305.26486      0              251.40498      521.65614     -0.19608302   
  25680000   279.7629       0              267.34225      515.0165       1.0534866    
  25690000   265.95368      0              265.36088      500.80983     -0.51543625   
  25700000   315.84945      0              259.68652      539.30822     -0.64093072   
  25710000   309.61912      0              258.97195      533.07794      0.88367096   
  25720000   300.37806      0              253.98247      519.90734     -0.15500977   
  25730000   300.52545      0              274.59282      540.64818     -1.5759907    
  25740000   311.81841      0              260.86295      536.91597      0.57989514   
  25750000   278.47544      0              258.62813      505.1626       0.085675186  
  25760000   294.43913      0              240.23559      500.90273      1.6208349    
  25770000   298.30839      0              259.30323      523.39582      1.6499917    
  25780000   307.90685      0              260.84377      533.43388     -0.70809241   
  25790000   297.8052       0              274.16732      537.81444     -2.71314      
  25800000   299.651        0              243.3775       508.65871     -0.37300719   
  25810000   317.31454      0              294.48514      575.40388     -0.65664789   
  25820000   307.14492      0              268.28337      540.19895      0.45665702   
  25830000   329.78642      0              256.62174      548.58185      0.31223137   
  25840000   297.44371      0              264.37496      527.70205     -0.52520005   
  25850000   297.5359       0              287.51151      550.92022     -1.0822193    
  25860000   306.07173      0              254.56287      525.52835      0.68561429   
  25870000   301.12314      0              247.79512      514.37961     -0.1806122    
  25880000   294.71328      0              256.14897      517.05881     -1.3503269    
  25890000   302.03207      0              264.86636      532.25553      0.61558786   
  25900000   332.7265       0              258.28174      552.84471      0.51418979   
  25910000   293.19613      0              260.91387      520.48057     -0.027394467  
  25920000   276.24238      0              264.3114       508.86895     -0.72206087   
  25930000   309.87739      0              266.96246      541.2971      -0.56418427   
  25940000   283.76844      0              280.48763      531.708       -1.1533967    
  25950000   292.75089      0              281.81218      540.98471     -0.93797022   
  25960000   282.10757      0              246.47677      496.22677      0.13463096   
  25970000   302.0328       0              244.28629      511.6761      -0.18892005   
  25980000   285.44633      0              242.39952      495.10533     -0.34998059   
  25990000   309.8001       0              260.43685      534.70306      0.46260734   
  26000000   296.15586      0              276.63734      538.8243      -0.54349981   
  26010000   296.52951      0              252.31415      514.83189      0.75563122   
  26020000   279.90175      0              273.30644      521.10363      1.3680067    
  26030000   284.03935      0              254.51542      505.97563      0.40613184   
  26040000   294.00589      0              258.46568      518.74927     -0.20482773   
  26050000   302.20598      0              258.63599      526.17913      0.5120551    
  26060000   305.12877      0              245.32456      515.45524     -0.086887952  
  26070000   285.75181      0              258.67657      511.65282     -0.50332476   
  26080000   289.13164      0              252.90879      508.8772       1.1282673    
  26090000   305.02259      0              283.49075      553.52743      0.716812     
  26100000   280.28875      0              251.15725      499.29704      1.2225793    
  26110000   282.35703      0              278.32573      528.29657     -0.047786985  
  26120000   338.06599      0              276.63507      575.92509      0.98604816   
  26130000   300.78614      0              265.32988      531.61603     -1.3737908    
  26140000   293.12656      0              239.9051       499.41022     -0.84025593   
  26150000   271.55102      0              271.12843      511.53271     -0.38788906   
  26160000   298.27568      0              262.95134      527.01498      1.5940165    
  26170000   308.91029      0              245.26572      518.74418     -1.4878487    
  26180000   281.64881      0              247.21375      496.5576       0.17820567   
  26190000   318.64475      0              245.33258      527.42897     -0.87342172   
  26200000   324.31212      0              266.72024      553.83395     -1.2869646    
  26210000   292.47075      0              287.03414      545.95867     -2.1710366    
  26220000   284.46594      0              287.78634      539.62421      0.28283289   
  26230000   330.85409      0              249.07805      541.98337     -0.47087442   
  26240000   290.50323      0              269.44685      526.62953     -2.2803169    
  26250000   321.29036      0              272.21534      556.65388     -0.12489458   
  26260000   291.63413      0              238.57455      496.75842     -1.0777543    
  26270000   294.61494      0              265.41242      526.2352       0.83399639   
  26280000   292.68644      0              265.39178      524.50726     -0.14362795   
  26290000   313.70088      0              271.75468      549.47425     -0.39078339   
  26300000   302.90009      0              272.03817      540.19579      1.3574753    
  26310000   301.62594      0              248.89893      515.92855      0.72839135   
  26320000   299.27069      0              262.04366      526.98818      0.64060297   
  26330000   298.96598      0              270.14953      534.82428     -0.59211089   
  26340000   297.56925      0              252.9401       516.37834      1.0588515    
  26350000   341.52713      0              278.71437      581.06854      0.4644878    
  26360000   298.76478      0              270.9496       535.44623     -0.33669205   
  26370000   303.48166      0              250.58955      519.26203      0.98534689   
  26380000   323.17053      0              270.11118      556.21424     -0.18876145   
  26390000   285.45226      0              257.59023      510.30128     -0.18306465   
  26400000   302.35893      0              255.66514      523.34368     -0.29798511   
  26410000   307.59126      0              276.87412      549.18484     -0.74919209   
  26420000   291.90852      0              262.36191      520.78869      2.0249074    
  26430000   286.9893       0              264.14897      518.22077     -0.13568744   
  26440000   301.31241      0              261.7129       528.46495      0.1992188    
  26450000   294.49688      0              261.3383       522.05656      1.2331643    
  26460000   309.92185      0              262.4852       536.85919      0.50933639   
  26470000   316.9518       0              274.20433      554.80194     -0.024626047  
  26480000   288.32594      0              273.67847      528.93359     -0.5594529    
  26490000   315.60121      0              254.83542      534.23736     -0.37548414   
  26500000   320.77289      0              247.6205       531.60092      0.048676856  
  26510000   287.32991      0              263.28571      517.65905     -0.87408466   
  26520000   297.77688      0              276.89713      540.51918     -0.97856816   
  26530000   287.42504      0              247.88617      502.34372     -0.062213362  
  26540000   313.64615      0              262.67924      540.35036     -0.055642134  
  26550000   303.08162      0              253.2533       521.57164      0.12858523   
  26560000   293.52719      0              272.20465      532.06444      0.43817223   
  26570000   309.15361      0              262.77664      536.47051      0.32039035   
  26580000   289.52262      0              279.17447      535.48902     -1.2007263    
  26590000   319.84273      0              265.222        548.37896      1.1506087    
  26600000   304.33353      0              268.04066      537.46731     -0.51406343   
  26610000   324.01016      0              270.64772      557.4941       0.36741792   
  26620000   310.14589      0              287.48366      562.05599      0.048324049  
  26630000   290.01834      0              268.10351      524.85692      0.14508816   
  26640000   311.44465      0              264.64356      540.36568      0.74187337   
  26650000   282.9187       0              258.51662      508.98471      0.044226905  
  26660000   272.94369      0              276.91174      518.54894     -1.8538443    
  26670000   312.05295      0              255.60134      531.862        0.44009428   
  26680000   302.21277      0              262.35701      529.90615      1.5384681    
  26690000   302.0559       0              249.24552      516.65578      0.19510806   
  26700000   320.58535      0              255.51486      539.32926      0.65938798   
  26710000   297.49061      0              244.75735      508.12596      0.53966106   
  26720000   270.13459      0              264.27688      503.42718      1.1513236    
  26730000   332.60799      0              270.40426      564.86231      0.13305548   
  26740000   298.15486      0              259.71998      523.67665     -1.083301     
  26750000   312.82543      0              256.98972      533.93426      1.2383977    
  26760000   313.5137       0              252.59782      530.15168     -0.86463054   
  26770000   304.64013      0              269.13376      538.83184     -0.030185875  
  26780000   330.93186      0              250.39155      543.36572     -0.90251727   
  26790000   299.69668      0              272.10876      537.4304      -0.73805485   
  26800000   265.11565      0              270.39215      505.09919      0.33818981   
  26810000   306.40807      0              252.49033      523.75358     -1.8760868    
  26820000   279.73028      0              248.62124      496.26663     -1.374395     
  26830000   301.27851      0              266.11152      532.83356     -0.084693721  
  26840000   288.85669      0              252.51553      508.24052     -0.3188519    
  26850000   274.36261      0              284.15375      527.04713      0.061212731  
  26860000   305.94102      0              265.47775      536.32752     -0.12906927   
  26870000   327.83813      0              257.29206      547.52735      0.11357322   
  26880000   302.08156      0              248.31575      515.74874     -0.23403684   
  26890000   305.587        0              272.85364      543.38999      1.0551982    
  26900000   312.75534      0              249.01552      525.89801     -0.54838712   
  26910000   276.65102      0              251.67147      496.59078     -0.060118424  
  26920000   309.84812      0              270.07374      544.38247     -1.7397643    
  26930000   276.50481      0              250.31791      495.10778      0.74045158   
  26940000   301.31037      0              245.44722      512.19746     -0.50381625   
  26950000   296.50055      0              275.27284      537.76495      0.069749599  
  26960000   314.53823      0              265.36199      543.82287     -0.065012918  
  26970000   276.61452      0              259.54798      504.43498      1.692256     
  26980000   288.2714       0              281.58666      536.7935       2.4417519    
  26990000   299.09623      0              277.47888      542.26894     -0.77662926   
  27000000   303.66517      0              257.36026      526.19521      1.6491696    
  27010000   304.29178      0              276.43724      545.82693     -1.5802976    
  27020000   299.76452      0              272.36622      537.74792      2.3802753    
  27030000   316.03187      0              267.25587      547.03907      1.2922677    
  27040000   302.14409      0              250.81058      518.29891     -0.72668423   
  27050000   317.51572      0              293.34609      574.44293      0.91904879   
  27060000   304.47473      0              262.4882       532.03986      0.98678539   
  27070000   300.28194      0              264.15059      529.99037      0.86511475   
  27080000   302.24871      0              251.62079      519.20175      0.39308673   
  27090000   270.89503      0              238.3957       478.21923     -1.4065591    
  27100000   305.52308      0              255.72806      526.20782     -0.28301118   
  27110000   313.68109      0              260.06817      537.77022      1.3064642    
  27120000   337.82736      0              255.08615      554.16491     -0.85833457   
  27130000   295.11236      0              255.23553      516.49868      0.04815254   
  27140000   314.06088      0              254.56138      532.59966      0.34030212   
  27150000   298.69541      0              257.33272      521.76795     -0.19798975   
  27160000   298.21865      0              273.73042      537.74357     -0.17863479   
  27170000   326.02059      0              248.2364       536.86262     -0.10047621   
  27180000   292.09397      0              274.92295      533.51391     -1.1411044    
  27190000   327.93972      0              291.25194      581.57717      0.81216936   
  27200000   315.58254      0              249.81273      529.19813     -0.61442174   
  27210000   300.11428      0              262.75427      528.44562      1.0521958    
  27220000   290.24655      0              239.21409      496.16953     -0.27429533   
  27230000   301.35009      0              262.47908      529.26449     -0.24720558   
  27240000   297.65974      0              266.40016      529.9185       0.51476045   
  27250000   307.28247      0              269.72651      541.76385     -0.69078326   
  27260000   291.03909      0              254.11686      511.77394      1.3174796    
  27270000   310.87062      0              239.38116      514.59511      0.0219187    
  27280000   312.95701      0              247.65879      524.71981      0.29295337   
  27290000   319.5826       0              270.20631      553.13297      1.0687438    
  27300000   330.82069      0              255.22309      548.09884     -0.40686347   
  27310000   299.07996      0              267.40318      532.17885      1.9446403    
  27320000   311.30416      0              267.61038      543.20813     -0.51734998   
  27330000   308.64614      0              264.0301       537.27471      0.021309755  
  27340000   286.96024      0              257.72076      511.76683      1.080202     
  27350000   287.88387      0              257.1248       511.98856     -1.3960905    
  27360000   311.09163      0              261.83666      537.24626      0.082255389  
  27370000   322.09781      0              274.55965      559.71303      0.12598697   
  27380000   298.36356      0              266.35602      530.49745      0.13240881   
  27390000   299.66182      0              270.82029      536.11107      1.0578805    
  27400000   303.80988      0              255.48855      524.45161     -0.068027326  
  27410000   296.63535      0              250.02514      512.63659     -0.64394329   
  27420000   295.25708      0              250.14971      511.54098      0.55749594   
  27430000   330.6176       0              275.30677      568.00273      0.98585111   
  27440000   268.06573      0              266.53044      503.8492      -0.81016885   
  27450000   304.56109      0              265.82417      535.45228     -0.67642149   
  27460000   293.2173       0              258.96415      518.54959      0.041369683  
  27470000   300.57274      0              276.98377      543.08099     -1.3728395    
  27480000   297.19996      0              269.28171      532.39301      0.58453579   
  27490000   275.26186      0              259.48544      503.17493     -1.1015861    
  27500000   307.13658      0              257.49922      529.40741     -0.6119008    
  27510000   282.5367       0              264.5433       514.6732       0.1698022    
  27520000   307.59952      0              252.36572      524.68375      1.4807252    
  27530000   305.48929      0              277.13         547.57985     -1.7541121    
  27540000   285.55614      0              256.43624      509.23926      0.0014131615 
  27550000   277.61804      0              248.90256      494.67797      1.7490731    
  27560000   293.28146      0              279.97105      539.6133      -0.347133     
  27570000   303.12286      0              263.70934      532.06418     -0.73589518   
  27580000   318.30206      0              267.21597      549.00897     -0.037590305  
  27590000   299.37271      0              259.23797      524.27281      0.33831899   
  27600000   300.31861      0              247.86663      513.73887      0.94267546   
  27610000   313.23948      0              264.02693      541.33803     -0.33994709   
  27620000   294.077        0              278.76816      539.1147      -0.5330636    
  27630000   300.78428      0              264.86222      531.14672      0.34403178   
  27640000   301.91018      0              270.26619      537.54745     -0.31626819   
  27650000   287.19085      0              244.95301      499.20324      1.0315493    
  27660000   326.44543      0              274.93699      563.93932     -0.57417827   
  27670000   348.1646       0              249.77998      558.01031     -0.85713835   
  27680000   315.80825      0              260.56524      540.15046      0.15055828   
  27690000   302.56037      0              252.56988      520.42676     -1.3873599    
  27700000   306.36953      0              269.77316      541.00228      0.20121014   
  27710000   305.45851      0              273.77808      544.20068     -0.8384779    
  27720000   314.99981      0              246.92187      525.79139     -1.1891309    
  27730000   282.92235      0              276.91173      527.38305      1.6013122    
  27740000   338.56757      0              268.55403      568.2881      -2.2046858    
  27750000   312.60672      0              265.31604      542.06695     -0.14991185   
  27760000   276.74257      0              265.31405      510.31441      0.35295612   
  27770000   318.14096      0              257.20304      538.85342      0.14252819   
  27780000   288.19102      0              277.29501      532.43069     -1.2701926    
  27790000   318.52635      0              251.62198      533.61354     -0.70167753   
  27800000   310.80553      0              240.87486      516.03117     -0.56956457   
  27810000   292.2794       0              249.46453      508.21965      0.21162109   
  27820000   282.61147      0              280.06439      530.26049      1.0044941    
  27830000   290.30934      0              280.55212      537.56315      0.31948533   
  27840000   287.31998      0              260.56089      514.92543      0.22015989   
  27850000   330.62821      0              255.35944      548.06479     -2.0627622    
  27860000   293.74181      0              268.7483       528.7981       0.90984833   
  27870000   300.32674      0              226.36854      492.24798     -0.23262465   
  27880000   279.05341      0              255.84001      502.88616     -0.22909958   
  27890000   306.20754      0              279.56         550.64572     -1.4391534    
  27900000   328.88787      0              252.27968      543.4443       0.70096374   
  27910000   280.91575      0              248.83901      497.53389     -0.35732834   
  27920000   303.38482      0              280.87605      549.46281      0.65996743   
  27930000   287.42952      0              252.64633      507.10785     -1.1404271    
  27940000   325.95469      0              266.35807      554.92594     -2.1589751    
  27950000   303.583        0              250.41862      519.18083     -0.23770911   
  27960000   283.85138      0              245.22681      496.5206      -0.47271451   
  27970000   277.5859       0              263.58815      509.33511     -0.82727552   
  27980000   272.73741      0              254.32446      495.77905     -0.58730738   
  27990000   306.05281      0              262.92701      533.87574      0.41727042   
  28000000   325.16058      0              264.92787      552.79272      0.35272395   
  28010000   303.61963      0              272.24614      541.04077     -0.32894494   
  28020000   278.81961      0              275.6357       522.47486     -0.17354146   
  28030000   307.13221      0              266.56         538.46433      0.61792521   
  28040000   314.26322      0              265.18147      543.39888     -0.26792741   
  28050000   312.82493      0              263.824        540.76809      0.23750353   
  28060000   323.60455      0              263.99567      550.48297     -1.1772916    
  28070000   308.96646      0              275.535        549.06319     -0.20205597   
  28080000   317.03499      0              287.05256      567.72382      0.68528877   
  28090000   304.95685      0              301.33444      571.31291     -0.21610985   
  28100000   295.60315      0              239.18842      500.88606     -0.48751725   
  28110000   300.32496      0              260.35236      526.23023     -0.066335682  
  28120000   294.10107      0              271.71498      532.08284     -0.0020291335 
  28130000   313.98748      0              244.8788       522.8521      -0.568194     
  28140000   296.58529      0              264.28311      526.85024      0.33523762   
  28150000   313.35178      0              256.31016      533.72068      1.8184482    
  28160000   276.12028      0              247.64788      492.09732      0.040120123  
  28170000   292.19668      0              289.1411       547.82299      0.28481418   
  28180000   319.05367      0              266.47329      548.93169     -1.424916     
  28190000   300.54864      0              273.56896      539.64485     -1.1827637    
  28200000   317.45203      0              257.23336      538.27383      1.3719781    
  28210000   299.03578      0              247.88505      512.6216       0.66173156   
  28220000   296.79691      0              274.1118       536.86628     -0.82429886   
  28230000   298.16159      0              250.75292      514.71555     -2.0910573    
  28240000   300.40482      0              278.25223      544.2008       0.20804417   
  28250000   302.74043      0              246.79812      514.8144       0.73620432   
  28260000   302.83727      0              260.52043      528.62245      0.68517036   
  28270000   303.12278      0              256.6816       525.03638     -0.69167897   
  28280000   293.68224      0              260.79186      520.78893      0.16956384   
  28290000   275.54241      0              272.23469      516.17254     -2.2614651    
  28300000   321.38353      0              267.02027      551.54129     -0.37416975   
  28310000   298.56337      0              262.38639      526.70472      1.846037     
  28320000   282.83342      0              264.87792      515.27052      0.80160955   
  28330000   290.24262      0              273.13478      530.08674     -0.64421751   
  28340000   282.16001      0              272.04693      521.84335     -0.22608258   
  28350000   300.23448      0              267.87248      533.67025      0.14213996   
  28360000   260.96547      0              279.35966      510.39254      1.651437     
  28370000   353.40575      0              279.69985      592.57017      0.058941433  
  28380000   295.71295      0              285.24065      547.0355      -0.8881512    
  28390000   303.28635      0              260.50318      529.00277     -1.1918709    
  28400000   317.22646      0              292.91616      573.75693      0.45654943   
  28410000   307.57857      0              265.92287      538.22235     -1.7955102    
  28420000   313.90179      0              265.87567      543.77311     -1.0109197    
  28430000   294.28727      0              255.70867      516.24136     -0.57526525   
  28440000   309.16586      0              250.97921      524.68393     -0.97818619   
  28450000   314.32456      0              271.6936       549.96531     -0.2035319    
  28460000   282.08906      0              267.47016      517.20377      0.85874624   
  28470000   297.74593      0              274.00639      537.60104     -2.5792526    
  28480000   309.73378      0              271.99543      546.20293     -1.1051886    
  28490000   299.40555      0              253.5015       518.5654       0.76100995   
  28500000   333.53569      0              279.42475      574.70409     -0.11284258   
  28510000   308.47449      0              273.5839       546.67654     -0.29504112   
  28520000   292.0393       0              262.23743      520.77999     -0.52411004   
  28530000   335.53702      0              272.73938      569.7905       1.2565304    
  28540000   282.86099      0              258.46786      508.88486      0.59401965   
  28550000   306.3231       0              282.65838      553.8464       0.18603571   
  28560000   303.0318       0              271.52305      539.79728     -2.0098751    
  28570000   295.15391      0              280.12671      541.42664      0.46886258   
  28580000   317.27208      0              252.50924      533.3904       1.8061515    
  28590000   301.1434       0              265.74847      532.35089     -0.85894093   
  28600000   293.79503      0              281.69766      541.79457      0.076824663  
  28610000   303.9233       0              264.29255      533.35603      0.90649629   
  28620000   314.32619      0              272.73634      551.0095       0.73979801   
  28630000   298.55416      0              264.39311      528.70328     -1.2287769    
  28640000   303.55598      0              243.36569      512.10398      0.32901899   
  28650000   299.85994      0              264.66202      530.1282      -1.1414683    
  28660000   283.2463       0              244.28465      495.04277      0.382965     
  28670000   286.37834      0              266.88439      520.4153      -0.44978757   
  28680000   310.64069      0              254.7572       529.76759     -0.49323668   
  28690000   307.95355      0              253.04933      525.68079      0.10831856   
  28700000   314.61553      0              250.4344       528.96372     -0.69076282   
  28710000   283.18784      0              238.38714      489.0935       0.73712938   
  28720000   304.10412      0              267.0345       536.25805      1.0319147    
  28730000   298.92154      0              258.55056      523.18597      0.85715404   
  28740000   324.73734      0              257.94672      545.43688      0.9542424    
  28750000   304.95652      0              264.34095      534.31913     -1.4717243    
  28760000   288.66512      0              257.5865       513.14189      0.0072381075 
  28770000   301.51674      0              272.66496      539.5979      -0.42766593   
  28780000   282.61413      0              284.7029       534.90136      0.58788288   
  28790000   319.32276      0              285.22167      567.91829      0.28053674   
  28800000   332.25549      0              275.37729      569.52327      0.66347091   
  28810000   309.21745      0              282.02816      555.77855      0.066222595  
  28820000   332.05793      0              245.87195      539.84304      0.067903898  
  28830000   292.97338      0              287.87824      547.24774      0.055718072  
  28840000   309.77755      0              272.38716      546.6334       1.9203894    
  28850000   312.62268      0              277.49812      554.26317      0.31433763   
  28860000   293.04326      0              267.83816      527.26952     -0.5673513    
  28870000   311.42959      0              268.77627      544.48507      0.5909855    
  28880000   316.95213      0              246.83081      527.42872      0.81505693   
  28890000   322.01906      0              251.94231      537.02598      0.11914811   
  28900000   314.37591      0              277.63677      555.95395      0.35595729   
  28910000   285.77308      0              243.71873      496.7138      -0.67229075   
  28920000   294.6728       0              293.64106      554.51507      0.31342499   
  28930000   282.23289      0              255.44457      505.30551      0.39712872   
  28940000   296.00791      0              266.33223      528.38821     -0.38251715   
  28950000   309.37346      0              270.86841      544.75692     -0.89454598   
  28960000   314.69965      0              265.38759      543.99137     -0.91655292   
  28970000   305.46354      0              268.46266      538.8897       1.0072512    
  28980000   295.17189      0              265.79502      527.11087     -1.233478     
  28990000   331.68728      0              269.84127      563.48421     -1.2653187    
  29000000   296.88767      0              281.79549      544.63032      0.94673765   
  29010000   294.64622      0              268.48269      529.33316      0.99695635   
  29020000   310.0125       0              250.85872      525.31297      0.56582359   
  29030000   294.48774      0              267.49843      528.2086      -2.4421133    
  29040000   284.86304      0              270.91388      523.10329     -0.10404195   
  29050000   299.75915      0              266.20571      531.58267      0.71973246   
  29060000   290.70541      0              240.67286      498.03454      0.46605251   
  29070000   290.04426      0              266.85446      523.63082     -2.1093046    
  29080000   294.12526      0              255.94966      516.33893      2.5131941    
  29090000   288.65035      0              260.93882      516.48114     -0.67104633   
  29100000   289.46914      0              274.8683       531.1355      -0.78829576   
  29110000   315.45287      0              274.70388      553.97449     -1.8064517    
  29120000   283.67846      0              250.826        501.9667       0.78332244   
  29130000   318.47614      0              263.44968      545.39679      1.5042848    
  29140000   312.656        0              251.16634      527.96088     -1.0262962    
  29150000   313.61986      0              245.8725       523.52035     -0.54465894   
  29160000   320.36302      0              261.6922       545.30977     -0.24212036   
  29170000   324.20648      0              252.36361      539.38379     -0.38743089   
  29180000   284.55544      0              281.61963      533.53673     -1.0644328    
  29190000   270.84716      0              255.93975      495.7209       1.5036238    
  29200000   268.11103      0              265.5813       502.94015      0.43212064   
  29210000   314.83932      0              255.68621      534.41365      0.73607396   
  29220000   303.79736      0              250.65648      519.60846     -1.3681987    
  29230000   281.7258       0              278.52548      527.93749     -0.082976369  
  29240000   316.95635      0              273.27567      553.87731     -0.46273022   
  29250000   303.29512      0              265.82765      534.335        1.5405193    
  29260000   307.41107      0              267.61375      539.76495     -0.256539     
  29270000   318.35241      0              236.9216       518.75917      0.229731     
  29280000   302.10588      0              274.06427      541.51878      1.3973865    
  29290000   295.62332      0              257.67103      519.38653      0.47144776   
  29300000   289.80082      0              271.32854      527.88938     -0.40910736   
  29310000   288.81601      0              251.34551      507.0345      -0.44820062   
  29320000   328.86657      0              259.89797      551.04374      0.73815005   
  29330000   305.81975      0              281.1446       551.887        0.48401696   
  29340000   298.26055      0              246.42376      510.474       -1.8884163    
  29350000   297.63321      0              272.13099      535.62584     -0.41093894   
  29360000   302.47111      0              257.02416      524.80201     -0.29380253   
  29370000   274.28659      0              252.87654      495.70262      1.150956     
  29380000   322.91647      0              269.34614      555.22428      1.6803664    
  29390000   290.83035      0              275.6523       533.12458     -0.92148665   
  29400000   308.44029      0              263.19914      536.26151     -1.0639228    
  29410000   275.27049      0              260.22655      503.92367     -0.72877831   
  29420000   289.32367      0              267.28254      523.42095     -0.72197225   
  29430000   293.6826       0              259.73136      519.72874      0.13307064   
  29440000   315.55726      0              235.74663      515.10966     -1.0705604    
  29450000   326.43141      0              257.17407      546.16399     -0.17494894   
  29460000   276.65661      0              251.54307      496.46734      0.55335227   
  29470000   310.71325      0              287.83408      562.9087      -0.43561294   
  29480000   301.65969      0              280.5671       547.6266      -0.13890041   
  29490000   311.05464      0              269.40263      544.77948     -0.88037318   
  29500000   288.6573       0              274.42535      529.97383     -0.66203887   
  29510000   318.91704      0              265.36667      547.70411     -1.5673807    
  29520000   333.62087      0              267.53993      562.89468      0.54426693   
  29530000   304.6404       0              269.19719      538.89552     -0.36069536   
  29540000   308.45511      0              260.58649      533.66197      0.28253521   
  29550000   298.0987       0              275.77347      539.68042     -0.28042738   
  29560000   310.18963      0              281.69795      556.30901     -0.26907582   
  29570000   298.03542      0              280.8087       544.65963      0.65593021   
  29580000   295.71153      0              272.45573      534.24933      0.052975558  
  29590000   297.03599      0              240.30281      503.26895     -0.58180629   
  29600000   311.03289      0              236.38771      511.74531     -0.40332906   
  29610000   350.91899      0              258.94685      569.61564      1.7589894    
  29620000   334.56577      0              282.67892      578.87019      1.8643961    
  29630000   305.94762      0              269.84405      540.69965      1.7279336    
  29640000   315.2195       0              261.90656      540.97057      0.68404957   
  29650000   313.12269      0              250.46682      527.67453     -0.37153888   
  29660000   291.61892      0              262.27715      520.44755     -0.49103107   
  29670000   303.66357      0              256.81538      525.64892     -0.6056622    
  29680000   310.49283      0              261.69636      536.57584      0.90505833   
  29690000   310.35582      0              266.8198       541.57799     -0.34118598   
  29700000   317.82851      0              270.4912       551.86497      1.4117225    
  29710000   325.41381      0              265.15064      553.23968     -0.53888475   
  29720000   310.58643      0              254.53378      529.49613      0.91396708   
  29730000   313.38416      0              252.04788      529.48707      0.57778949   
  29740000   309.114        0              275.30514      548.96395      1.5913497    
  29750000   338.69155      0              263.08817      562.932       -0.64108859   
  29760000   321.90513      0              262.07164      547.05443      1.6999279    
  29770000   325.93868      0              249.83836      538.39207     -0.27067788   
  29780000   298.52383      0              234.72058      499.0039      -0.55796438   
  29790000   317.52736      0              257.11748      538.22464      2.1060117    
  29800000   302.2639       0              284.21862      551.81302     -1.2283905    
  29810000   297.49379      0              266.72256      530.09399     -0.35770695   
  29820000   307.55408      0              282.51285      554.79065     -0.29166942   
  29830000   294.79079      0              264.21759      525.19605      0.7300519    
  29840000   308.33443      0              266.62964      539.59829     -2.7694373    
  29850000   314.49897      0              254.88941      533.31554      0.41359667   
  29860000   296.40167      0              270.71358      533.11816      0.91329156   
  29870000   311.96832      0              286.10721      562.29295     -0.9893063    
  29880000   294.98178      0              250.62333      511.77086     -0.21166249   
  29890000   276.63828      0              271.51153      516.41955      0.4881251    
  29900000   293.27962      0              246.62638      506.267       -0.74707848   
  29910000   300.29514      0              257.94802      523.79947      0.22171309   
  29920000   308.58548      0              240.98278      514.17368     -1.1097209    
  29930000   304.02699      0              268.44148      537.59675     -0.31244918   
  29940000   329.17023      0              258.66354      550.07814     -1.8490075    
  29950000   320.74604      0              256.37329      540.32995      0.22979337   
  29960000   279.61109      0              302.43689      549.97675     -0.12796003   
  29970000   307.9332       0              260.95453      533.56798     -0.3019347    
  29980000   314.12242      0              261.8599       539.95267     -1.1522712    
  29990000   279.41203      0              258.34303      505.70666     -0.10381031   
  30000000   304.39775      0              260.02193      529.50544     -1.0016553    
  30010000   294.79996      0              278.13122      539.1178      -1.0114175    
  30020000   285.52586      0              277.40868      530.18489      0.85708052   
  30030000   295.17293      0              261.06356      522.38033     -0.79074269   
  30040000   322.86273      0              259.23465      545.06521      0.83108701   
  30050000   319.61319      0              258.34136      541.29511     -0.25358737   
  30060000   308.81986      0              269.60224      543.00064      0.53215848   
  30070000   288.81099      0              258.60139      514.28593      1.0242278    
  30080000   311.56283      0              248.06106      523.88781      0.013287537  
  30090000   292.31815      0              258.5661       517.35553     -0.66199004   
  30100000   304.98968      0              252.14189      522.14943     -0.72627258   
  30110000   289.54872      0              281.43157      537.76922     -1.1330864    
  30120000   312.23882      0              267.1738       543.599        1.2412307    
  30130000   308.29898      0              238.21028      511.14756     -0.30016202   
  30140000   301.93425      0              251.24764      518.55021     -0.092001536  
  30150000   303.30307      0              278.83239      547.34677      0.36783974   
  30160000   301.169        0              254.76071      521.3858       0.16785107   
  30170000   290.29538      0              269.20591      526.20458      0.4000159    
  30180000   302.47814      0              259.4046       527.18867     -0.13045779   
  30190000   312.67968      0              264.9809       541.79641     -0.91924449   
  30200000   323.9783       0              253.68805      540.50622     -0.75849468   
  30210000   317.00835      0              244.67783      525.3255      -0.063273272  
  30220000   312.67483      0              264.09358      540.90479     -0.92281279   
  30230000   315.50652      0              228.50531      507.82342      1.4011785    
  30240000   292.56425      0              279.53872      538.54603     -0.37188954   
  30250000   310.70363      0              239.66426      514.73036     -0.27999724   
  30260000   316.89883      0              275.52615      556.07687      1.6207822    
  30270000   291.2155       0              288.43944      546.25269     -1.7643787    
  30280000   310.41836      0              250.42124      525.2348      -0.42093873   
  30290000   283.07825      0              271.92301      522.53236     -0.30373722   
  30300000   295.43549      0              255.7832       517.33241     -0.14890442   
  30310000   327.0244       0              261.16222      550.67711      0.72837649   
  30320000   300.40856      0              265.06157      531.01344     -0.34188718   
  30330000   289.5186       0              264.85157      521.16256     -0.13567302   
  30340000   308.02641      0              260.40722      533.10318      0.77458038   
  30350000   310.24183      0              258.50428      533.16155      1.2101416    
  30360000   300.00773      0              239.23655      504.83357     -1.0031725    
  30370000   314.70208      0              278.07759      556.68352     -0.99039842   
  30380000   321.09985      0              257.25147      541.52136      0.39762442   
  30390000   322.6362       0              276.25273      561.88275     -0.61253646   
  30400000   315.62255      0              262.7911       542.21192     -1.0353255    
  30410000   284.41719      0              259.63907      511.43378      1.3619277    
  30420000   290.22409      0              273.80205      530.7376       0.12056809   
  30430000   283.78313      0              265.83536      517.06873      2.1897893    
  30440000   311.82786      0              257.81207      533.87345     -0.64865742   
  30450000   309.26866      0              279.41392      553.20964      1.6321832    
  30460000   297.67956      0              241.59396      505.12985      0.60763473   
  30470000   286.7114       0              265.43631      519.26208      1.5336261    
  30480000   305.44883      0              303.86719      574.28121     -1.0614078    
  30490000   314.2646       0              280.68074      558.89938      0.29131001   
  30500000   320.33842      0              250.52274      534.11853     -0.64209276   
  30510000   310.06697      0              247.51866      522.02113     -0.11559903   
  30520000   290.0029       0              264.93785      521.67758      1.6162642    
  30530000   324.67547      0              251.37202      538.8074       1.1115492    
  30540000   318.85777      0              249.62603      531.911        1.1432513    
  30550000   301.06319      0              270.44875      536.98017      1.0460098    
  30560000   299.98181      0              266.25595      531.83002      1.0688486    
  30570000   324.0699       0              241.61985      528.51912     -0.54807897   
  30580000   312.60184      0              263.24229      539.98888      0.30991081   
  30590000   308.1918       0              272.25729      545.09968      0.42276767   
  30600000   273.10003      0              275.07062      516.84624      0.61197928   
  30610000   276.93966      0              265.09144      510.26628      0.0022259745 
  30620000   285.62586      0              263.33094      516.19568      0.81532993   
  30630000   289.63968      0              251.84743      508.26561     -0.77047071   
  30640000   318.75822      0              279.38897      561.58581      0.59910698   
  30650000   269.56324      0              281.00389      519.64838      1.7655461    
  30660000   311.62977      0              255.81462      531.70064      1.1347803    
  30670000   318.80013      0              256.90978      539.14372      0.5917956    
  30680000   298.96702      0              252.31526      516.99094      0.27387701   
  30690000   322.45428      0              266.78684      552.25581     -1.0212614    
  30700000   293.33731      0              259.15566      518.84735     -0.69928197   
  30710000   298.50557      0              265.31279      529.57994      0.81973562   
  30720000   301.13591      0              254.20945      520.80525      0.78315311   
  30730000   299.03744      0              274.84891      539.58693     -1.0325754    
  30740000   296.41728      0              278.11373      540.53212      0.98622591   
  30750000   290.02825      0              253.89007      510.65225     -2.5813614    
  30760000   301.88562      0              266.62496      533.88448     -1.2872066    
  30770000   309.06392      0              258.24137      531.85584     -0.0021788473 
  30780000   282.18691      0              239.43424      489.25447      0.3391142    
  30790000   319.47234      0              278.50347      561.33251      1.5672012    
  30800000   316.95457      0              291.26649      571.86656      1.0694278    
  30810000   288.85276      0              260.0705       515.79202     -1.4324277    
  30820000   315.8055       0              256.63905      536.22184     -0.52398574   
  30830000   289.63763      0              267.89053      524.30689      1.0250609    
  30840000   287.23091      0              271.6356       525.92129      0.35032979   
  30850000   273.01701      0              239.93085      481.63297     -1.5800527    
  30860000   312.9013       0              281.10347      558.11517     -0.80273259   
  30870000   319.88329      0              253.65747      536.85033     -0.57061728   
  30880000   295.72977      0              264.4434       526.25314     -0.67434722   
  30890000   308.81074      0              244.86223      518.25256      0.027416599  
  30900000   308.47118      0              247.80363      520.89335     -0.33283197   
  30910000   293.7272       0              276.7024       536.73926     -0.88135642   
  30920000   308.53873      0              261.36244      534.51196     -0.27599374   
  30930000   280.96747      0              250.41275      499.15341      1.6891779    
  30940000   298.29553      0              255.85031      519.93152     -0.51217705   
  30950000   301.9394       0              263.67371      530.98083      0.0089815606 
  30960000   293.17433      0              258.84299      518.39039     -1.4260424    
  30970000   302.14789      0              252.98044      520.47215      0.83724288   
  30980000   291.5433       0              262.67005      520.7735      -0.51753253   
  30990000   306.79849      0              270.80331      542.41219     -0.35385398   
  31000000   307.41316      0              254.43031      526.58336     -0.40505016   
  31010000   290.4251       0              275.68707      532.80057      0.11079661   
  31020000   308.26778      0              272.93725      545.8469      -1.0186513    
  31030000   318.465        0              260.67903      542.61628      1.9272648    
  31040000   314.63795      0              249.18297      527.73214      0.31416818   
  31050000   306.84586      0              266.59224      538.24306      0.59927027   
  31060000   308.93984      0              255.68484      529.18946      1.2544248    
  31070000   300.08168      0              262.31919      527.98167      0.36659267   
  31080000   312.63012      0              267.41532      544.18694     -0.087837829  
  31090000   312.24384      0              264.02314      540.4528       0.22419078   
  31100000   315.9468       0              247.51735      527.22524      0.91647204   
  31110000   281.4612       0              258.44958      507.62734     -0.09335387   
  31120000   280.7406       0              254.72304      503.26285     -1.0088878    
  31130000   285.49525      0              258.98967      511.73878     -1.3928856    
  31140000   307.34835      0              253.99767      526.09335     -0.94152633   
  31150000   297.05058      0              271.75035      534.7294       0.60473709   
  31160000   289.819        0              262.17564      518.75257      0.34230747   
  31170000   307.33693      0              254.45259      526.53815     -0.30128324   
  31180000   281.07558      0              260.75333      509.58971      1.962116     
  31190000   299.22414      0              263.9464       528.84971     -0.35554831   
  31200000   312.75551      0              267.88157      544.76421      1.4422885    
  31210000   295.21132      0              259.73097      521.08172     -2.3769295    
  31220000   306.92482      0              280.28426      552.00498     -0.51273449   
  31230000   281.79562      0              268.08232      517.55615      0.0020819011 
  31240000   283.94881      0              255.63141      507.01145     -0.064956832  
  31250000   298.6413       0              264.02263      528.40994     -0.43781372   
  31260000   301.00439      0              245.44024      511.9196       0.022310555  
  31270000   313.03698      0              262.11426      539.24608     -0.91581561   
  31280000   317.79847      0              284.56042      565.90759     -0.32678176   
  31290000   294.69585      0              261.23496      522.12937     -0.59217904   
  31300000   316.78967      0              281.69407      562.14815      2.9147175    
  31310000   302.1538       0              267.05014      534.54708     -0.53799751   
  31320000   314.00369      0              257.75597      535.74362      1.3615374    
  31330000   297.18607      0              256.55038      519.64938     -0.38795759   
  31340000   301.96747      0              258.41723      525.7492      -1.2712893    
  31350000   305.08672      0              269.29582      539.38927      0.67776756   
  31360000   290.46411      0              271.90241      529.05046      0.54984055   
  31370000   276.49613      0              253.84824      498.63042     -1.0952863    
  31380000   288.06831      0              257.86302      512.89006     -1.4151897    
  31390000   292.97643      0              257.68256      517.05476      0.61735988   
  31400000   328.25732      0              291.25991      581.86631     -1.267822     
  31410000   277.27353      0              275.97061      521.44103     -1.361173     
  31420000   293.74797      0              267.06932      527.12457      0.19055617   
  31430000   290.05379      0              275.23451      532.01929      1.8290916    
  31440000   288.17436      0              249.28222      504.40315     -0.61929029   
  31450000   308.48809      0              245.44503      518.54971     -0.32209856   
  31460000   311.35845      0              250.06252      525.70834     -0.79851046   
  31470000   280.38447      0              249.50776      497.73229      0.0048677773 
  31480000   297.92174      0              271.67334      535.42363     -0.35933917   
  31490000   290.82191      0              267.49506      524.95987     -0.15205146   
  31500000   297.5474       0              255.81326      519.23215      0.99360201   
  31510000   300.28002      0              272.22507      538.06315     -3.1423375    
  31520000   298.66281      0              276.02704      540.4334       0.95109143   
  31530000   299.67103      0              276.32497      541.62391      0.39438503   
  31540000   302.53028      0              256.34742      524.17766      1.4786958    
  31550000   322.88353      0              242.15591      528.00488      0.5509123    
  31560000   293.92351      0              245.10391      505.31456     -1.7405444    
  31570000   292.84396      0              282.66455      541.91948      1.4192603    
  31580000   308.83175      0              273.33484      546.74377     -0.083185957  
  31590000   276.20602      0              281.80427      526.32962     -0.13259269   
  31600000   289.29198      0              253.1675       509.27786      2.0814565    
  31610000   305.83602      0              250.82188      521.57868      1.1399296    
  31620000   292.49012      0              283.775        542.71667     -0.12373429   
  31630000   306.22011      0              273.37211      544.46895      0.40130099   
  31640000   305.97278      0              270.82519      541.70308      1.2328051    
  31650000   311.38043      0              276.01786      551.68314      0.19896577   
  31660000   286.83118      0              238.53804      492.46985      0.1141315    
  31670000   306.42884      0              275.31797      546.5996      -0.55984836   
  31680000   273.23186      0              247.85812      489.75045      0.5670928    
  31690000   279.7696       0              246.38294      494.06314      0.83222888   
  31700000   318.17496      0              254.20787      535.88834     -0.046792129  
  31710000   287.4248       0              268.20611      522.66346      0.64360247   
  31720000   296.88733      0              253.89484      516.72937      0.43503444   
  31730000   320.44887      0              270.958        554.65158      1.6223018    
  31740000   312.71154      0              273.79193      550.63564      2.0231706    
  31750000   301.26654      0              249.90242      516.61386     -0.11876967   
  31760000   292.39863      0              248.76017      507.62085     -0.5300487    
  31770000   299.5646       0              253.15045      518.35516      0.7723146    
  31780000   299.56344      0              285.48556      550.68926      0.2713354    
  31790000   303.74449      0              280.5482       549.45338      0.97953256   
  31800000   288.6066       0              265.00251      520.5061       1.1086668    
  31810000   325.40438      0              261.46547      549.54616      1.1279537    
  31820000   304.81847      0              247.58285      517.43882     -1.0648745    
  31830000   280.20245      0              257.63243      505.69582     -0.23926105   
  31840000   340.56003      0              264.60925      566.10724     -0.2663895    
  31850000   302.77028      0              280.0875       548.13021      0.20569048   
  31860000   302.73382      0              249.58017      517.5906      -0.91065156   
  31870000   288.14635      0              272.9398       528.03593     -1.0371005    
  31880000   266.75634      0              269.71812      505.87766     -0.68037584   
  31890000   294.62668      0              256.24725      517.08043      0.88321568   
  31900000   290.8101       0              277.15433      534.60868      0.86895836   
  31910000   297.80268      0              286.4211       550.06599      1.0913755    
  31920000   293.16205      0              248.44832      507.98486     -1.2429195    
  31930000   306.96125      0              244.98072      516.73369      0.95246234   
  31940000   301.16614      0              260.59947      527.22203      0.6120452    
  31950000   306.5834       0              246.75031      518.16878     -0.43170225   
  31960000   288.63549      0              278.28776      533.81693     -0.35554358   
  31970000   302.27427      0              266.31224      533.91583      0.45219824   
  31980000   279.14782      0              260.27684      507.40656     -1.8806448    
  31990000   284.07815      0              273.62072      525.11527     -0.73463484   
  32000000   293.45269      0              268.75768      528.55152      0.71459158   
  32010000   302.13091      0              283.25201      550.72868     -0.33554075   
  32020000   296.0635       0              259.44981      521.555        0.53801335   
  32030000   286.76978      0              280.92847      534.80592      0.30010796   
  32040000   312.9034       0              255.49753      532.51109     -0.15500065   
  32050000   321.00226      0              240.24386      524.42734      0.34055811   
  32060000   302.6889       0              257.27138      525.24205      1.7331431    
  32070000   309.75454      0              256.51853      530.7444       0.12754744   
  32080000   294.03748      0              281.66966      541.98122      1.1742492    
  32090000   300.93913      0              260.76785      527.18944     -0.11939437   
  32100000   298.18968      0              239.38969      503.3772       0.6138288    
  32110000   315.75347      0              258.0907       537.62743      0.2823521    
  32120000   314.24253      0              279.91622      558.11532     -1.7016866    
  32130000   302.6606       0              302.0101       569.9557      -0.82141234   
  32140000   313.23545      0              256.50988      533.81741     -0.5150015    
  32150000   308.60108      0              265.35048      538.55519      0.17995543   
  32160000   258.60323      0              276.57306      505.51465     -0.15406892   
  32170000   310.55546      0              261.19976      536.1347       0.10005537   
  32180000   293.19855      0              276.25799      535.82683     -0.30518632   
  32190000   304.25046      0              257.22339      526.5765      -0.44352761   
  32200000   305.45657      0              270.93832      541.3592      -1.9371556    
  32210000   276.80873      0              274.8826       519.94153     -1.7663007    
  32220000   297.19124      0              265.27501      528.37858     -0.99813583   
  32230000   274.83714      0              262.94439      506.25787      0.59067618   
  32240000   308.20409      0              272.81205      545.66531      0.77252094   
  32250000   288.07501      0              273.3088       528.34178     -0.098756999  
  32260000   313.31774      0              238.48569      515.86607      0.71141543   
  32270000   322.40159      0              291.93567      577.35799      0.0042677388 
  32280000   314.21202      0              282.18328      560.35536      0.070531483  
  32290000   289.40253      0              275.99739      532.20562      0.19431262   
  32300000   318.04134      0              282.44784      564.01002     -0.48219211   
  32310000   324.41204      0              256.73671      543.93888      1.9346328    
  32320000   301.64954      0              263.85394      530.90446      1.1886519    
  32330000   312.13961      0              285.17543      561.51281      1.0109506    
  32340000   293.76227      0              282.7776       542.84551     -0.21689399   
  32350000   308.48256      0              270.56991      543.6697      -0.0066426482 
  32360000   319.76439      0              260.0265       543.11411      0.70201807   
  32370000   324.77862      0              265.51373      553.04044      0.35683747   
  32380000   313.67028      0              265.889        543.58148     -1.286308     
  32390000   297.62539      0              261.18409      524.67202     -1.3044277    
  32400000   303.77071      0              281.14329      550.07168      2.2118338    
  32410000   304.57355      0              261.60231      531.24145      1.0881986    
  32420000   258.06033      0              255.7172       484.17815      0.38430206   
  32430000   297.14756      0              260.05914      523.12405     -0.93873361   
  32440000   304.32045      0              259.05726      528.47233     -0.9110953    
  32450000   292.24709      0              258.82077      517.54729     -0.10217882   
  32460000   304.56685      0              271.17366      540.80687      0.87001436   
  32470000   300.01124      0              272.24254      537.84267      0.49949806   
  32480000   281.40545      0              284.24442      533.37283     -1.1263145    
  32490000   293.64677      0              235.62692      495.59258      0.043469361  
  32500000   326.64497      0              252.55302      541.73201      0.56138849   
  32510000   295.75041      0              271.09775      532.92576     -0.9983503    
  32520000   258.46767      0              262.36876      491.19034     -0.015550944  
  32530000   283.5173       0              249.49601      500.49404     -0.6484306    
  32540000   282.78233      0              261.53866      511.88602     -1.4328887    
  32550000   291.74431      0              258.54776      516.82917     -2.4650004    
  32560000   303.47456      0              250.6803       519.34651      0.052217865  
  32570000   281.04177      0              267.81491      516.62136     -1.7090623    
  32580000   325.89992      0              270.79251      559.3119       0.94631209   
  32590000   294.13419      0              250.61633      511.0135       0.12337866   
  32600000   286.90112      0              280.78587      534.7796      -0.40294737   
  32610000   293.12989      0              251.684        511.19206     -0.89483613   
  32620000   303.20872      0              265.6173       534.04816     -0.48277402   
  32630000   296.30074      0              279.21832      541.53354      0.22624265   
  32640000   299.2617       0              260.17463      525.11118      0.73737509   
  32650000   307.14424      0              268.02646      539.94144      1.0948376    
  32660000   271.81986      0              292.87786      533.52014      0.72513835   
  32670000   302.88893      0              268.46738      536.61512      0.50795079   
  32680000   289.71353      0              252.95848      509.44204      1.8099294    
  32690000   312.13085      0              264.40528      540.73491      0.66969296   
  32700000   291.2597       0              262.48345      520.33583     -1.9977894    
  32710000   284.99261      0              264.26478      516.5689       0.30371563   
  32720000   290.92799      0              286.34914      543.90786      2.1065197    
  32730000   290.10526      0              286.98995      543.82031     -0.31891132   
  32740000   308.14995      0              259.12367      531.929        0.75184135   
  32750000   295.86639      0              260.47465      522.40534      1.1176527    
  32760000   337.67832      0              264.08046      563.02728     -0.95388466   
  32770000   308.51204      0              255.17193      528.29782      0.36304833   
  32780000   324.98988      0              274.01379      561.72752      0.33103352   
  32790000   292.81115      0              248.81643      508.04231      0.3202636    
  32800000   298.7487       0              260.9747       525.45709     -1.260708     
  32810000   311.32444      0              250.87685      526.49255     -1.1105804    
  32820000   281.4617       0              258.25138      507.42959     -2.0509394    
  32830000   296.2311       0              264.22695      526.48052      0.10255965   
  32840000   322.49513      0              269.75679      555.26193      0.71649554   
  32850000   283.10364      0              264.90414      515.53596     -0.52428706   
  32860000   319.23016      0              271.33335      553.948       -1.1352024    
  32870000   291.18739      0              263.36258      521.15095      1.0663767    
  32880000   289.25233      0              280.66064      536.73589      0.72762411   
  32890000   300.66802      0              260.76024      526.94181     -1.0450681    
  32900000   329.15752      0              275.25376      566.65711     -0.11831052   
  32910000   288.12009      0              272.65497      527.72785     -0.070470536  
  32920000   312.91074      0              254.4842       531.50426     -1.6025747    
  32930000   308.22708      0              263.08208      535.95569     -2.5516749    
  32940000   296.80479      0              261.08406      523.84551     -0.3148397    
  32950000   301.60469      0              258.67975      525.69056      1.577212     
  32960000   312.70389      0              265.13535      541.97229     -0.42563555   
  32970000   265.56404      0              286.691        521.795        0.59498578   
  32980000   294.50324      0              257.27685      518.00074     -2.8039199    
  32990000   312.44242      0              232.00423      508.60969      0.79300292   
  33000000   304.52355      0              268.96452      538.55939     -1.5727931    
  33010000   307.67372      0              261.00344      533.38717     -0.37763968   
  33020000   308.49989      0              277.71359      550.82873     -0.59011098   
  33030000   312.87089      0              241.23992      518.2247       0.13390581   
  33040000   310.68506      0              264.20772      539.25739     -1.6318021    
  33050000   270.95507      0              252.31766      492.19434     -0.033501686  
  33060000   309.35449      0              259.22076      533.09247      2.2288094    
  33070000   323.97927      0              250.69628      537.51532     -0.89775391   
  33080000   281.51114      0              267.61721      516.83919      0.17294643   
  33090000   319.6215       0              268.54898      551.51008     -0.29095214   
  33100000   343.65448      0              261.63633      565.87385      0.31753497   
  33110000   320.43557      0              263.7864       547.46819     -0.0024036414 
  33120000   285.12361      0              286.76005      539.18014     -1.0916039    
  33130000   320.69849      0              271.68504      555.5996      -0.81029271   
  33140000   316.00167      0              265.30722      545.06368      0.0045453495 
  33150000   291.47867      0              254.51084      512.55707     -0.62857873   
  33160000   287.19617      0              272.33851      526.59344      0.036802761  
  33170000   304.36016      0              280.73324      550.18347     -2.7367069    
  33180000   308.8394       0              260.28976      533.70547     -0.57766562   
  33190000   295.03755      0              297.62561      558.82253     -2.0852857    
  33200000   277.16209      0              262.06954      507.4413      -0.053878719  
  33210000   302.16042      0              256.90958      524.41237     -2.4737282    
  33220000   285.17025      0              252.43483      504.89622     -0.53711178   
  33230000   288.85312      0              244.49675      500.21858     -1.1653202    
  33240000   294.73807      0              252.39671      513.32849     -0.15927562   
  33250000   305.02415      0              270.52349      540.56155      0.77682139   
  33260000   306.82645      0              245.83353      517.46716     -0.49191939   
  33270000   292.23786      0              243.48373      502.20208      1.7879733    
  33280000   321.36626      0              254.69387      539.19961     -0.28326297   
  33290000   275.67535      0              252.8937       496.94925     -0.4696583    
  33300000   278.10168      0              261.56171      507.76529     -0.27328969   
  33310000   296.45857      0              237.76685      500.22179      0.13517357   
  33320000   312.61816      0              262.35189      539.11293     -1.183721     
  33330000   293.8279       0              258.75145      518.87746     -0.2069973    
  33340000   309.88548      0              259.49002      533.83181      0.5859583    
  33350000   299.9097       0              271.34961      536.85985     -1.8389699    
  33360000   300.05263      0              276.92574      542.56252      1.5440881    
  33370000   286.56801      0              265.227        518.92583      1.1283372    
  33380000   299.82546      0              278.47533      543.91099      0.37288192   
  33390000   282.95864      0              260.61353      511.11698     -0.54856926   
  33400000   302.32473      0              253.37815      521.02641     -0.68640268   
  33410000   301.41174      0              287.33425      554.17424     -0.56822144   
  33420000   316.43225      0              274.35488      554.49253     -0.59609636   
  33430000   305.7857       0              270.54494      541.2572      -0.7092067    
  33440000   314.15893      0              268.04925      546.17433      0.19162627   
  33450000   295.6737       0              243.02482      504.78492     -0.90021961   
  33460000   304.07295      0              263.61073      532.80669      1.3842663    
  33470000   285.79788      0              271.48408      524.50111     -1.3813038    
  33480000   277.10872      0              256.78794      502.11245     -0.83718905   
  33490000   324.669        0              278.8116       566.24126      1.0981389    
  33500000   305.11714      0              266.93008      537.05046     -0.42830018   
  33510000   310.33724      0              266.66543      541.40716     -0.98196134   
  33520000   299.19263      0              242.32799      507.2034      -0.39717256   
  33530000   306.30634      0              279.99555      551.16873      1.0871052    
  33540000   289.78408      0              241.01347      497.55949     -0.29161546   
  33550000   320.32426      0              269.59479      553.17804      0.27454461   
  33560000   286.68891      0              264.69511      518.50096      0.20546968   
  33570000   314.57279      0              283.23923      561.73071      0.21836159   
  33580000   294.76986      0              270.96808      531.92801     -0.12071655   
  33590000   274.2796       0              272.8288       515.64869      0.48799673   
  33600000   316.58313      0              253.83891      534.11014     -0.27243057   
  33610000   289.06922      0              270.06776      525.98091      0.098274784  
  33620000   331.22119      0              266.06643      559.29674     -0.83057014   
  33630000   289.29683      0              258.05917      514.17382      1.7500168    
  33640000   322.40034      0              250.18023      535.60143     -0.6971369    
  33650000   311.0481       0              244.94682      520.31788     -0.77529043   
  33660000   310.37198      0              296.8665       571.63899      0.49677205   
  33670000   320.99424      0              294.70409      578.88048     -0.67077542   
  33680000   321.7767       0              273.19559      558.06469     -0.029239279  
  33690000   291.06155      0              271.79778      529.47474      0.74951825   
  33700000   299.81584      0              279.53722      544.96436      1.8856643    
  33710000   297.97609      0              262.0137       525.8121      -1.5840877    
  33720000   322.13591      0              262.85377      548.04088      0.069438051  
  33730000   314.14508      0              267.5837       545.69653     -0.99189161   
  33740000   279.34383      0              254.43216      501.73541      0.086360798  
  33750000   326.38252      0              280.69286      569.63949      0.93690298   
  33760000   298.64311      0              230.11531      494.50423     -1.2166488    
  33770000   291.35783      0              247.64856      505.58782      1.3348683    
  33780000   312.29204      0              257.11445      533.58678      0.93850726   
  33790000   296.20284      0              268.87178      531.10033     -0.60443689   
  33800000   319.96251      0              256.90132      540.16432      1.2979587    
  33810000   326.00199      0              251.62814      540.2379       1.3154523    
  33820000   306.07804      0              278.35422      549.32529     -0.18906931   
  33830000   323.90611      0              257.88794      544.64221     -1.4397096    
  33840000   276.23261      0              256.85612      501.405       -0.34855687   
  33850000   297.81654      0              248.01742      511.67458     -0.97193653   
  33860000   308.46688      0              277.51745      550.60336     -0.73271356   
  33870000   300.04137      0              268.01681      533.64361     -0.21065119   
  33880000   297.2615       0              245.47321      508.63898     -0.5414185    
  33890000   289.90015      0              273.03416      529.68293     -0.52721382   
  33900000   298.18816      0              263.17281      527.15897     -0.073245795  
  33910000   283.1926       0              255.77754      506.48811      1.720403     
  33920000   336.62353      0              242.94129      540.9543      -1.2655807    
  33930000   285.80611      0              261.38151      514.40582      0.65353096   
  33940000   297.10828      0              241.93474      504.96487      1.3318317    
  33950000   300.82672      0              230.79872      497.12079      0.10331183   
  33960000   284.81664      0              252.48904      504.63737     -1.7471231    
  33970000   307.1078       0              247.11817      519.00089      0.00099193076
  33980000   273.67923      0              251.57618      493.86456     -0.61061643   
  33990000   297.62002      0              258.29133      521.77451      0.1150979    
  34000000   296.11049      0              276.97135      539.11813      1.5363168    
  34010000   305.94101      0              266.17185      537.0216       0.94190502   
  34020000   312.91692      0              255.79555      532.82109      0.56920517   
  34030000   309.29239      0              265.57785      539.39458      1.5540499    
  34040000   294.03577      0              278.66942      538.97946     -0.25881677   
  34050000   332.42857      0              278.98064      573.27985      1.0642958    
  34060000   296.72225      0              271.79971      534.48809      0.60465148   
  34070000   314.57282      0              251.19042      529.68192      1.6072961    
  34080000   288.43281      0              274.65902      530.00876     -0.21207317   
  34090000   296.4439       0              255.35528      517.79723      0.14687378   
  34100000   287.33635      0              252.8547       507.23374      0.45497241   
  34110000   294.60677      0              244.36166      505.1772       0.20225414   
  34120000   328.16364      0              271.33827      561.86173     -1.2305254    
  34130000   320.56634      0              280.18883      563.9864      -0.18454477   
  34140000   269.21499      0              270.07488      508.41106      0.55190568   
  34150000   306.99279      0              222.13949      493.92039     -0.10756019   
  34160000   292.45105      0              262.77317      521.68025      1.1646533    
  34170000   313.83821      0              283.05328      560.89443     -1.5270776    
  34180000   301.67012      0              275.63668      542.70541     -0.11837656   
  34190000   313.51378      0              266.83181      544.38575     -0.45167184   
  34200000   277.60385      0              260.57858      506.34143     -0.055549505  
  34210000   299.61112      0              262.87505      528.12095      0.3518619    
  34220000   306.13517      0              273.50486      544.5265      -0.21822421   
  34230000   293.09203      0              268.66973      528.14428      1.7266828    
  34240000   299.41304      0              256.01628      521.08682     -0.51595269   
  34250000   280.45827      0              272.91277      521.20264     -0.37992243   
  34260000   295.9061       0              265.74246      527.7083      -1.5832226    
  34270000   295.67029      0              257.76995      519.52703      1.8363028    
  34280000   313.75523      0              261.16159      538.92928      1.3263586    
  34290000   286.18922      0              283.47713      536.84061     -0.791805     
  34300000   333.44782      0              261.66062      556.86217      2.2203631    
  34310000   287.99179      0              277.0577       532.017       -1.528038     
  34320000   286.79385      0              271.83089      525.72965      0.26911765   
  34330000   291.15449      0              253.34742      511.10666     -0.12648012   
  34340000   312.52211      0              255.24167      531.91768      0.47709015   
  34350000   317.18981      0              276.08876      556.89708     -0.28959207   
  34360000   314.33618      0              286.82023      565.10223      1.1055611    
  34370000   292.60996      0              287.80804      546.85581     -1.316093     
  34380000   297.58964      0              252.78617      516.24245     -0.72830937   
  34390000   323.44738      0              279.90197      566.25013      2.1731099    
  34400000   293.00819      0              265.30895      524.70928     -0.087016606  
  34410000   293.88006      0              257.75406      517.92625     -0.67400549   
  34420000   301.95051      0              243.60156      510.91852     -1.2512257    
  34430000   317.65404      0              264.60385      545.82316     -0.99210566   
  34440000   301.1718       0              249.95331      516.58088      0.7193977    
  34450000   301.32831      0              256.68353      523.44965     -0.73288737   
  34460000   286.82779      0              264.04587      517.97468      2.3370549    
  34470000   294.19112      0              255.46754      515.91511      0.79599447   
  34480000   264.25707      0              265.45259      499.39953     -0.82777882   
  34490000   281.98457      0              291.33024      540.97135     -1.0058638    
  34500000   303.21378      0              269.93376      538.3691       1.1684258    
  34510000   304.49091      0              255.2173       524.78328     -0.088692935  
  34520000   311.2461       0              248.76969      524.31604      0.10654278   
  34530000   303.15499      0              266.87268      535.25597      0.17165496   
  34540000   294.03107      0              261.06325      521.36913      0.068863766  
  34550000   316.23015      0              244.70191      524.66064     -0.88916367   
  34560000   314.0763       0              260.72737      538.77931      1.7772812    
  34570000   285.31476      0              265.55218      518.1415       2.1524583    
  34580000   321.92832      0              252.22428      537.22761     -1.1686478    
  34590000   308.76544      0              265.03522      538.38544      1.1865905    
  34600000   299.82365      0              272.82634      538.26039      1.2695483    
  34610000   305.2772       0              260.73206      530.99414      0.46923066   
  34620000   326.47063      0              251.99427      541.01891      1.673802     
  34630000   310.79667      0              251.29027      526.43875      0.23188045   
  34640000   306.62225      0              256.52753      527.98038     -0.036262114  
  34650000   311.01724      0              267.24067      542.58441      0.67847545   
  34660000   286.74727      0              267.93828      521.79581     -0.44717589   
  34670000   294.64014      0              272.67542      533.5205      -0.62354301   
  34680000   315.64902      0              268.41629      547.86055      1.7800249    
  34690000   322.86192      0              263.28382      549.11366     -0.31070518   
  34700000   318.53284      0              260.231        542.22831     -1.548356     
  34710000   290.48785      0              258.82912      515.99819      2.2021501    
  34720000   283.66481      0              267.90189      519.03051     -1.8542246    
  34730000   288.32381      0              273.9379       529.19115     -1.1943613    
  34740000   293.23211      0              288.43397      548.03253     -0.016436857  
  34750000   300.60154      0              258.99153      525.11425     -0.44112679   
  34760000   266.72217      0              248.97135      485.10064      0.3317428    
  34770000   307.08066      0              259.44176      531.30045     -1.5157916    
  34780000   304.78296      0              254.07497      523.89951     -0.4826046    
  34790000   291.9557       0              250.63466      509.1032       0.34398828   
  34800000   302.15897      0              241.5484       509.04991     -0.68562932   
  34810000   293.67372      0              267.39529      527.38481     -2.7178929    
  34820000   305.94037      0              277.61781      548.46699     -0.9919033    
  34830000   276.34059      0              271.61721      516.2617      -2.0075769    
  34840000   308.51848      0              264.08091      537.2125       1.1471738    
  34850000   310.2175       0              266.99579      541.63152      2.2779834    
  34860000   283.72182      0              237.12941      488.3085      -0.25559636   
  34870000   268.9494       0              285.42717      523.52823      1.632896     
  34880000   310.7427       0              275.45954      550.56023     -1.0324112    
  34890000   287.66269      0              267.39148      522.05942      1.4501314    
  34900000   293.13474      0              252.58344      512.0958      -0.29339876   
  34910000   308.90662      0              278.00561      551.48082     -0.54710958   
  34920000   325.69495      0              255.51791      543.85584      0.40472366   
  34930000   293.88014      0              241.96401      502.13627      0.65819544   
  34940000   283.00151      0              243.5948       494.1362      -2.2115699    
  34950000   310.82992      0              262.64473      537.82264     -1.4538071    
  34960000   298.96209      0              288.1039       552.77521      1.0732359    
  34970000   272.89443      0              245.98971      487.58331     -0.93642523   
  34980000   316.24669      0              253.60058      533.57396     -0.9658204    
  34990000   289.74396      0              251.99661      508.50711     -0.008351438  
  35000000   284.11554      0              276.36429      527.89194     -0.22412412   
  35010000   312.45797      0              258.21706      534.83628      0.66358751   
  35020000   300.78616      0              276.21098      542.49715      1.101663     
  35030000   317.61862      0              271.77577      552.96372      1.3594344    
  35040000   293.8309       0              286.38691      546.51558      0.18834805   
  35050000   289.23033      0              246.6318       502.68758     -0.0016914564 
  35060000   314.39575      0              265.73622      544.07096      0.80154081   
  35070000   289.11172      0              255.24662      511.19739      2.3911933    
  35080000   278.22953      0              266.21488      512.53165     -0.71985856   
  35090000   304.59568      0              240.72534      510.38407      0.12206124   
  35100000   313.06504      0              277.10737      554.26403      1.1811623    
  35110000   297.88293      0              266.69913      530.41507     -1.757412     
  35120000   290.16527      0              304.91448      561.79796     -1.0635903    
  35130000   304.27263      0              265.21341      534.58614      1.2677766    
  35140000   288.30467      0              264.01899      519.25528      0.022231037  
  35150000   296.37498      0              245.80287      508.18381      0.62880568   
  35160000   301.14627      0              263.54317      530.14814      0.47479594   
  35170000   314.73661      0              279.23217      557.86868      0.35103909   
  35180000   308.41563      0              271.89273      544.93327      1.0792384    
  35190000   309.04715      0              273.23801      546.83763     -0.077549992  
  35200000   293.23093      0              269.47093      529.06844     -0.037917677  
  35210000   298.61059      0              270.08617      534.4463      -0.89647392   
  35220000   303.48559      0              251.62933      520.3053       0.3382095    
  35230000   284.15562      0              276.52996      528.0931       0.4088789    
  35240000   296.79301      0              264.77799      527.52901     -0.23660815   
  35250000   300.40866      0              224.68698      490.63895      0.14715083   
  35260000   301.37983      0              271.12707      537.93881     -1.0297931    
  35270000   298.08112      0              261.89341      525.7848      -0.54994277   
  35280000   293.9819       0              264.39689      524.65924      0.55084042   
  35290000   315.31235      0              270.61306      549.75927     -0.090375352  
  35300000   328.48821      0              248.91392      539.72473     -0.16535115   
  35310000   292.8679       0              282.85568      542.1318       0.55405164   
  35320000   287.89259      0              271.41406      526.28554     -1.8595119    
  35330000   293.17137      0              239.08186      498.62665      0.096861824  
  35340000   299.97723      0              273.68358      539.2536       1.3658217    
  35350000   307.40852      0              271.52715      543.67609     -1.0707589    
  35360000   295.77809      0              281.28737      543.13988     -1.9280333    
  35370000   285.67896      0              265.95778      518.86953     -0.15802348   
  35380000   304.92355      0              261.88325      531.83224     -0.81012046   
  35390000   296.65365      0              265.33921      527.96686     -0.53616051   
  35400000   312.48317      0              258.69495      535.33649     -1.1476956    
  35410000   287.83149      0              254.05193      508.86932     -0.80399197   
  35420000   304.56952      0              258.28299      527.91856      0.73936008   
  35430000   278.6118       0              258.38966      505.04485     -0.47641065   
  35440000   311.04828      0              255.96659      531.33782     -1.0669355    
  35450000   319.61844      0              273.48969      556.44808      1.1128193    
  35460000   279.32627      0              267.21871      514.50643      0.12283125   
  35470000   286.26846      0              252.48768      505.92132      0.14328176   
  35480000   286.96981      0              258.14187      512.19641      0.10653494   
  35490000   312.97511      0              243.78745      520.86449     -0.52136303   
  35500000   272.2928       0              272.33735      513.39832     -0.54118547   
  35510000   321.51764      0              264.13457      548.77433      0.85338539   
  35520000   311.09794      0              260.97753      536.39272     -0.31009665   
  35530000   296.23782      0              270.98902      533.24853      1.1625537    
  35540000   318.36888      0              286.25883      568.11098     -0.21375242   
  35550000   313.68425      0              261.38986      539.09471     -1.4509627    
  35560000   320.32535      0              262.95352      546.53774      0.8987765    
  35570000   290.7953       0              233.34674      490.78799      0.31405962   
  35580000   290.30638      0              270.7007       527.70911     -1.6970869    
  35590000   307.92833      0              240.5253       513.13444      0.54577463   
  35600000   307.91857      0              263.03465      535.63513      1.1858873    
  35610000   311.1632       0              264.13287      539.60583      0.18271639   
  35620000   323.53642      0              276.61536      563.04234      0.981092     
  35630000   277.17608      0              270.16143      515.54558      1.3834434    
  35640000   294.2804       0              253.75491      514.28152     -1.0404473    
  35650000   289.62946      0              282.732        539.14114     -1.2604528    
  35660000   310.75876      0              271.16564      546.28055     -1.2873805    
  35670000   296.54094      0              278.91271      541.44058      0.69892695   
  35680000   308.14026      0              267.67299      540.46974     -0.48296987   
  35690000   318.63514      0              248.61841      530.70629      0.5156397    
  35700000   279.60796      0              265.94446      513.48155      0.018152866  
  35710000   289.69197      0              268.03867      524.50314      1.0017328    
  35720000   288.30234      0              279.5066       534.74084     -2.6453594    
  35730000   297.86021      0              245.50604      509.20186      1.433737     
  35740000   319.43715      0              269.6282       552.4261       0.33987719   
  35750000   321.23655      0              256.68976      541.08066      0.71094335   
  35760000   312.00052      0              246.80564      523.01988      1.5538155    
  35770000   296.39819      0              265.57664      527.97813     -1.537218     
  35780000   304.23864      0              273.28903      542.63168      0.78944555   
  35790000   295.33798      0              260.90409      522.36698     -0.66366128   
  35800000   291.97477      0              256.14675      514.63219      0.18686427   
  35810000   313.02141      0              285.14575      562.26379     -0.94573077   
  35820000   292.29461      0              236.47328      495.24187      0.5154461    
  35830000   293.59733      0              281.71891      541.6408       0.96178765   
  35840000   282.53684      0              263.97439      514.10442     -0.56649829   
  35850000   283.33137      0              267.6779       518.51133     -1.4622608    
  35860000   318.16607      0              285.99973      567.67233      0.68060864   
  35870000   313.90731      0              259.05843      536.96075      0.092112393  
  35880000   299.73387      0              272.89744      538.25201     -0.49962665   
  35890000   327.71719      0              273.19207      563.32029      0.068678741  
  35900000   307.99052      0              256.31702      528.98121     -2.1564921    
  35910000   307.77993      0              257.16247      529.64021      0.23391774   
  35920000   323.21164      0              279.75316      565.89261      0.26327318   
  35930000   281.13647      0              271.01492      519.9052       0.36434209   
  35940000   306.13812      0              259.24286      530.26712     -1.3346828    
  35950000   324.76723      0              268.67819      556.19481      1.6448149    
  35960000   282.59191      0              259.84953      510.02832     -0.39354236   
  35970000   300.84124      0              250.37156      516.70649      0.52188669   
  35980000   276.5735       0              252.56791      497.41859     -0.20976757   
  35990000   288.08624      0              270.75676      525.79968     -1.0378855    
  36000000   318.88029      0              287.90959      570.2145      -2.5760231    
  36010000   305.34647      0              265.35369      535.6771       1.5423203    
  36020000   309.36731      0              266.44721      540.33027      0.25746612   
  36030000   337.22509      0              245.19378      543.73935     -0.5461827    
  36040000   287.1492       0              269.36925      523.5826       0.66222965   
  36050000   306.41586      0              255.74218      527.01232      0.34653531   
  36060000   310.16242      0              255.2674       529.85438     -0.59054662   
  36070000   280.60873      0              242.88937      491.31244     -0.6655743    
  36080000   299.03197      0              246.65375      511.38693     -0.69691077   
  36090000   298.79305      0              274.4527       538.97436      0.47016128   
  36100000   303.74634      0              263.53379      532.4406      -0.34703151   
  36110000   298.7009       0              275.65012      540.0902       0.17834191   
  36120000   311.33334      0              259.85623      535.47982     -0.85793211   
  36130000   280.44526      0              233.24521      481.52357      0.12276856   
  36140000   306.4272       0              263.86927      535.14945     -0.025388092  
  36150000   275.83957      0              276.86992      521.07085      0.55160037   
  36160000   314.95836      0              270.5973       549.43012     -1.6123611    
  36170000   310.74226      0              253.25131      528.35162     -0.56659547   
  36180000   278.40383      0              248.54426      495.01534      0.31712614   
  36190000   297.77995      0              273.60241      537.22717      0.063237236  
  36200000   283.05121      0              283.43804      534.02344      0.058376895  
  36210000   283.42185      0              265.6072       516.52073      0.36592977   
  36220000   300.92492      0              276.04252      542.45153     -0.30324019   
  36230000   313.43841      0              280.41139      557.8986       0.23101586   
  36240000   295.25463      0              270.6956       532.0847      -0.52489807   
  36250000   278.91971      0              262.28122      509.20901      0.3456527    
  36260000   289.32125      0              252.75824      508.89452     -1.062951     
  36270000   314.72825      0              239.98139      518.61049      2.1859198    
  36280000   282.72069      0              237.78554      488.07833     -0.9090643    
  36290000   306.63014      0              245.77886      517.2387      -0.42141676   
  36300000   303.34131      0              260.90821      529.45645      0.93793414   
  36310000   316.81641      0              256.55569      537.03344      0.1527359    
  36320000   309.28953      0              257.70038      531.51458      0.77894713   
  36330000   310.16956      0              242.09185      516.68515      0.43325104   
  36340000   291.22449      0              266.08957      523.91079      1.3986272    
  36350000   316.58246      0              253.46253      533.73317     -2.1217505    
  36360000   303.37313      0              262.65242      531.22883      1.3782698    
  36370000   321.4408       0              271.14565      555.71737     -0.30131898   
  36380000   305.22806      0              250.32567      520.54425      0.62651891   
  36390000   305.78123      0              269.04373      539.75202      1.0996184    
  36400000   266.83208      0              260.0206       496.24719      1.0791156    
  36410000   333.29056      0              278.32706      573.38939      0.44921143   
  36420000   300.06716      0              255.16585      520.81548      1.1624185    
  36430000   311.3292       0              261.03764      536.65756      0.25543883   
  36440000   264.3041       0              268.8742       502.86277     -0.055312888  
  36450000   298.64036      0              255.45377      519.84025      0.54351206   
  36460000   288.09571      0              261.56061      516.61191      0.45420383   
  36470000   308.57161      0              255.74664      528.92527      1.5080994    
  36480000   309.96272      0              257.68532      532.0955       0.97627738   
  36490000   327.05478      0              289.16381      578.7056      -0.80762427   
  36500000   308.08945      0              258.18533      530.9371       0.63581448   
  36510000   284.99339      0              263.91464      516.21945      0.41195689   
  36520000   287.9057       0              255.63991      510.52299      1.2147748    
  36530000   302.17382      0              248.2458       515.76046     -0.072448984  
  36540000   292.50008      0              257.92479      516.87528      1.3244705    
  36550000   308.98117      0              273.94683      547.48804      1.061305     
  36560000   308.83126      0              266.86901      540.2775       0.86482388   
  36570000   312.18396      0              260.49468      536.87132      0.071108087  
  36580000   306.09706      0              256.24624      527.23415     -0.94634094   
  36590000   271.55585      0              259.53181      499.94036     -0.61497431   
  36600000   293.55552      0              251.24352      511.12839      2.0499613    
  36610000   289.56798      0              271.97804      528.33275      0.3433202    
  36620000   284.52349      0              260.10934      511.99815      0.089196285  
  36630000   309.29447      0              265.92182      539.7404       2.2340817    
  36640000   300.93521      0              278.22644      544.64456      1.3839594    
  36650000   281.21523      0              267.02454      515.98454      0.14818804   
  36660000   283.78509      0              247.67592      498.91103     -1.3818504    
  36670000   298.69487      0              280.29134      544.72608     -0.52214096   
  36680000   316.80251      0              262.0137       542.47915     -0.38494774   
  36690000   295.47391      0              278.55706      540.14029     -1.0818965    
  36700000   326.30452      0              253.38262      542.2602      -0.0068488801 
  36710000   293.71641      0              290.62931      550.65662     -1.4231847    
  36720000   286.7565       0              275.39619      529.26188     -0.89295181   
  36730000   323.58462      0              253.81628      540.28594      0.23670968   
  36740000   325.89238      0              260.52427      549.03698     -0.71106541   
  36750000   298.20118      0              284.01677      548.01444      0.10530186   
  36760000   307.2336       0              266.72051      538.7146       0.46431735   
  36770000   281.88762      0              258.17539      507.73066      0.86997744   
  36780000   304.56033      0              253.00789      522.63533     -1.470888     
  36790000   298.37233      0              253.42388      517.57308     -0.71471076   
  36800000   292.94682      0              257.51699      516.86298      0.70353424   
  36810000   313.07641      0              246.90543      524.07215      1.4442812    
  36820000   302.33302      0              263.85297      531.50857     -0.25121497   
  36830000   328.56328      0              259.92115      550.79841      1.9086621    
  36840000   303.29986      0              269.5577       538.06925      0.95773651   
  36850000   299.15913      0              263.31107      528.15682      0.18869581   
  36860000   315.69683      0              254.84347      534.33006     -1.3708429    
  36870000   288.34167      0              266.66301      521.93206     -0.84575762   
  36880000   298.32481      0              252.65609      516.76322      0.180759     
  36890000   305.37569      0              250.62674      520.97602     -2.0182143    
  36900000   321.79987      0              264.13968      549.02929      0.55846938   
  36910000   282.8327       0              244.4943       494.88625     -1.1809404    
  36920000   308.51613      0              262.23409      535.3636      -0.48677111   
  36930000   279.06395      0              265.1232       512.17867      0.0082849541 
  36940000   305.77739      0              268.23553      538.94044      0.38361437   
  36950000   315.56697      0              270.3272       549.69882     -0.35085625   
  36960000   293.65792      0              286.77513      546.75066     -0.4549053    
  36970000   297.97261      0              262.18992      525.98525     -0.0058320813 
  36980000   296.74647      0              260.95987      523.6697       0.84274764   
  36990000   293.31459      0              267.44824      527.11982     -0.31848649   
  37000000   274.32645      0              262.04728      504.90865     -0.23152235   
  37010000   332.44676      0              256.66037      550.97567     -0.84547188   
  37020000   294.49559      0              255.2021       515.91922      0.69811789   
  37030000   289.20621      0              246.23028      502.26471      0.70049498   
  37040000   309.63401      0              262.20871      536.32788      1.9242729    
  37050000   293.0996       0              256.52427      516.00552     -0.046534654  
  37060000   274.27538      0              292.32961      535.14576     -0.35579415   
  37070000   298.31831      0              250.28571      514.38708      0.28752536   
  37080000   295.78588      0              263.2554       525.11482      1.7975201    
  37090000   301.56241      0              257.47503      524.44841      1.4966109    
  37100000   280.55003      0              274.26921      522.64032     -1.180033     
  37110000   311.33776      0              245.05837      520.68587     -0.41634833   
  37120000   277.54005      0              281.88742      527.59379     -1.2378684    
  37130000   313.34973      0              242.91203      520.32073     -0.82942566   
  37140000   303.27326      0              278.19464      546.68263      1.1682037    
  37150000   309.29114      0              246.28944      520.10507     -0.23214705   
  37160000   271.53048      0              252.59214      492.97823      0.13404664   
  37170000   288.61425      0              278.40051      533.91087      0.97079503   
  37180000   296.78594      0              274.91894      537.6637      -0.30944493   
  37190000   293.27338      0              253.81844      513.45354      0.21183465   
  37200000   318.14831      0              256.73077      538.38766     -1.6687998    
  37210000   304.47356      0              264.10536      533.65598     -0.49947043   
  37220000   301.79971      0              279.27889      546.46235      0.31813623   
  37230000   295.35218      0              261.64836      523.12382      0.1170206    
  37240000   282.65388      0              271.80882      522.04247     -0.045677658  
  37250000   295.57176      0              275.1639       536.83375      2.3109633    
  37260000   325.48998      0              266.22978      554.38625     -0.95262269   
  37270000   314.79551      0              275.84148      554.53013     -1.1979761    
  37280000   316.4722       0              243.0544       523.22743     -0.042447504  
  37290000   280.40605      0              254.33803      502.58167     -1.2930521    
  37300000   300.05494      0              288.32451      553.96332     -0.99030029   
  37310000   272.16974      0              263.19918      504.15121      1.2709776    
  37320000   292.32911      0              269.07555      527.87468      1.0107096    
  37330000   295.24553      0              262.75455      524.13559     -0.3460803    
  37340000   287.76326      0              270.34005      525.09704     -0.51350751   
  37350000   319.6409       0              237.88625      520.86453     -0.1999903    
  37360000   295.84092      0              294.86406      556.7722       1.9138329    
  37370000   296.41657      0              263.35039      525.76815      1.5551194    
  37380000   269.1998       0              285.11674      523.43948      0.15615982   
  37390000   298.12324      0              260.32388      524.25256      0.32179779   
  37400000   346.13829      0              252.0232       558.45963      0.36539599   
  37410000   299.90006      0              268.66951      534.17121      0.6420089    
  37420000   298.4592       0              269.35388      533.57999      0.57633975   
  37430000   285.51894      0              281.00762      533.77771      1.6909749    
  37440000   285.31714      0              258.76747      511.3589       0.2465649    
  37450000   295.36472      0              269.31144      530.798        1.0746708    
  37460000   321.29281      0              253.74526      538.18596     -0.34080296   
  37470000   308.05483      0              263.48129      536.20241      0.44265623   
  37480000   324.17674      0              263.34419      550.33804      0.52815236   
  37490000   317.87451      0              238.48821      519.9027       0.93455732   
  37500000   290.60252      0              266.70116      523.97175      0.86472107   
  37510000   301.99786      0              246.10283      513.46172     -1.3845941    
  37520000   291.85561      0              255.31375      513.6937      -0.61986721   
  37530000   318.38849      0              272.46451      554.33403     -0.38988506   
  37540000   298.03468      0              263.65987      527.51014      1.1387563    
  37550000   311.76593      0              253.58796      529.59453      0.15448228   
  37560000   271.27876      0              271.37531      511.53855      0.45082543   
  37570000   279.15443      0              254.95515      502.09073      1.0310395    
  37580000   325.97721      0              269.29487      557.88269     -0.37148476   
  37590000   315.54114      0              267.72976      547.07852      0.6831776    
  37600000   300.85505      0              254.96964      521.31679     -0.71405833   
  37610000   300.30684      0              277.89805      543.75987      0.40964679   
  37620000   300.52818      0              276.91281      542.97058      1.5823734    
  37630000   296.22016      0              255.26512      517.50901      0.62960176   
  37640000   293.94849      0              273.04259      533.27535      0.23708376   
  37650000   290.4356       0              263.61206      520.73486      0.35423823   
  37660000   294.48162      0              255.93858      516.64334     -0.22039842   
  37670000   277.81834      0              259.02871      504.98144     -0.76811956   
  37680000   311.79829      0              250.75509      526.7903       0.053553132  
  37690000   314.65112      0              245.80499      524.36581     -0.57894503   
  37700000   296.91938      0              250.44595      513.30885     -0.5820955    
  37710000   286.54845      0              276.62279      530.30431     -2.2632334    
  37720000   300.13218      0              262.49653      528.20373     -0.30209685   
  37730000   280.93561      0              272.15768      520.87014     -0.58087176   
  37740000   316.84729      0              281.25738      561.76248     -2.2898615    
  37750000   303.96606      0              269.32181      538.42314     -1.4005646    
  37760000   285.21829      0              240.09603      492.59995      1.7845038    
  37770000   319.08644      0              253.09478      535.58219     -1.2809934    
  37780000   287.87703      0              245.25651      500.11422      0.49911023   
  37790000   309.0845       0              265.52515      539.15784     -0.63051861   
  37800000   295.93682      0              275.46079      537.45382     -0.76029744   
  37810000   275.96698      0              284.90927      529.223       -1.1484799    
  37820000   290.35979      0              274.50663      531.56233     -0.49051369   
  37830000   305.12366      0              259.68131      529.80747      0.43358873   
  37840000   298.3479       0              255.71448      519.84205      0.81645294   
  37850000   292.38009      0              276.82779      535.67206     -0.41351599   
  37860000   293.58408      0              245.42706      505.33721     -1.976805     
  37870000   294.01062      0              259.35816      519.64593      0.48800718   
  37880000   294.8567       0              245.35853      506.39534      0.56649579   
  37890000   302.11985      0              298.91299      566.37987      0.10012322   
  37900000   288.7485       0              261.44127      517.07048     -1.349845     
  37910000   288.7348       0              253.66609      509.28318     -1.3571772    
  37920000   336.16889      0              243.8467       541.45721     -0.41703834   
  37930000   311.09285      0              285.99883      561.40951     -1.3398144    
  37940000   296.2469       0              256.8642       519.13175     -0.57922593   
  37950000   321.26958      0              273.73937      558.15952      0.32454589   
  37960000   299.4249       0              267.38225      532.46329      1.1305405    
  37970000   291.91739      0              273.24201      531.67665      1.0762414    
  37980000   314.08972      0              250.52421      528.58803     -0.37103111   
  37990000   293.34772      0              258.81722      518.51813      0.19726217   
  38000000   316.94798      0              258.15365      538.74788     -0.10610524   
  38010000   302.34003      0              241.11593      508.77773     -1.0062698    
  38020000   313.02299      0              278.76181      555.88125     -1.918255     
  38030000   294.76501      0              259.21415      520.16978      0.32860751   
  38040000   307.49023      0              278.58443      550.80571      0.93878295   
  38050000   293.56058      0              267.72721      527.61656      0.9865075    
  38060000   302.26747      0              265.73373      533.3313       1.5180344    
  38070000   323.67345      0              283.638        570.1863      -1.3633652    
  38080000   297.30505      0              265.25577      528.4601       0.76588578   
  38090000   291.54964      0              265.67789      523.78695      0.65037817   
  38100000   309.25374      0              254.53303      528.31555      0.81160799   
  38110000   299.78404      0              273.23061      538.6296      -0.87908764   
  38120000   292.54277      0              276.10589      535.09417     -2.0230878    
  38130000   326.76101      0              265.30753      554.58924     -0.87438688   
  38140000   324.63245      0              275.32626      562.72356      1.3121307    
  38150000   300.28946      0              265.44451      531.29095      1.4927109    
  38160000   300.88339      0              271.99246      538.3647      -1.066113     
  38170000   297.02908      0              284.96486      547.92488      0.82794764   
  38180000   282.95644      0              255.48391      505.98541      1.3026198    
  38190000   298.04569      0              252.97152      516.83154     -0.72902975   
  38200000   288.05129      0              284.47827      539.49025     -0.03137356   
  38210000   299.79867      0              267.15788      532.56982      1.0445634    
  38220000   295.16062      0              280.50614      541.81201     -0.4539645    
  38230000   312.10428      0              294.88483      571.19094     -0.63603376   
  38240000   309.29612      0              273.39004      547.21007      0.43566408   
  38250000   325.435        0              264.30491      552.4127      -1.0496617    
  38260000   304.10486      0              252.61987      521.84408      0.042378071  
  38270000   317.58426      0              268.00308      549.16061      0.018930548  
  38280000   303.83788      0              272.08511      541.07296     -2.2540223    
  38290000   314.42716      0              252.54949      530.91204     -0.82791139   
  38300000   283.93268      0              322.2129       573.57866     -1.3632445    
  38310000   289.00175      0              278.62104      534.47446     -0.55751245   
  38320000   297.29574      0              264.59159      527.78769      1.7684964    
  38330000   323.76506      0              260.93845      547.56785     -1.5842564    
  38340000   284.70247      0              265.41252      517.45979     -1.9106508    
  38350000   302.30199      0              273.09459      540.72271     -3.0110771    
  38360000   303.86694      0              231.4447       500.45828     -0.64196431   
  38370000   302.71659      0              250.53168      518.52686     -1.0622425    
  38380000   314.35589      0              271.1423       549.44175     -1.4265846    
  38390000   297.49474      0              264.7687       528.14096     -0.76976728   
  38400000   299.10649      0              268.37282      533.17197      0.34597391   
  38410000   281.34238      0              257.91038      506.98295      0.18716808   
  38420000   326.87257      0              245.41604      534.79652     -0.22725562   
  38430000   298.1021       0              259.48648      523.39644     -0.88388399   
  38440000   304.18489      0              260.16504      529.4601       0.51872078   
  38450000   295.79397      0              255.73134      517.59791     -0.72796193   
  38460000   281.07988      0              257.90563      506.7458      -0.69083272   
  38470000   304.9435       0              256.24738      526.21404     -0.69641278   
  38480000   310.23064      0              265.13216      539.77953     -0.25803402   
  38490000   290.70024      0              268.1808       525.53789      0.0024645644 
  38500000   275.06006      0              252.11543      495.62626      2.1648005    
  38510000   318.23781      0              270.07692      551.81304     -0.59196651   
  38520000   314.33627      0              271.3127       549.59478      0.28356868   
  38530000   306.21549      0              254.335        525.42775     -0.2264946    
  38540000   301.49126      0              261.07615      527.98653     -1.0554168    
  38550000   336.14522      0              250.84242      548.43198      0.016234729  
  38560000   309.35922      0              272.7601       546.63599     -1.5459053    
  38570000   297.90123      0              243.96441      507.69654     -0.71986784   
  38580000   281.18912      0              268.17009      517.10699     -0.21158311   
  38590000   304.17509      0              258.62283      527.90921      0.38889489   
  38600000   286.69047      0              259.53164      513.33887      0.0042217163 
  38610000   304.58976      0              255.25875      524.91224      0.073425033  
  38620000   313.61172      0              264.89247      542.5331       0.60081076   
  38630000   301.32592      0              272.15158      538.91559      0.12021989   
  38640000   317.56212      0              236.4076       517.54553     -0.20719993   
  38650000   306.0331       0              267.28028      538.21156      0.73916381   
  38660000   280.48546      0              258.59483      506.90878     -0.071180065  
  38670000   289.8326       0              264.76256      521.35153      0.46619417   
  38680000   299.47074      0              263.75069      528.87231     -0.39886509   
  38690000   319.06521      0              264.49666      546.96528     -0.32502739   
  38700000   303.48055      0              275.18389      543.8554      -0.030389108  
  38710000   320.72354      0              267.2157       551.15244     -0.78653282   
  38720000   296.71572      0              276.30757      538.99018      2.4151521    
  38730000   310.85363      0              265.46577      540.66468      0.28077937   
  38740000   285.89091      0              256.41287      509.51226     -0.21232093   
  38750000   297.27033      0              264.63847      527.81207     -0.94766813   
  38760000   287.11378      0              255.69013      509.87213      0.58927742   
  38770000   304.65839      0              273.98942      543.70367      2.6893793    
  38780000   289.53892      0              243.87051      500.19948      2.2965839    
  38790000   321.41996      0              261.38936      545.94264      0.70125834   
  38800000   304.79088      0              261.43566      531.2672      -0.026537117  
  38810000   303.09806      0              238.468        506.80089     -0.25304577   
  38820000   325.75997      0              251.14417      539.53965     -0.517092     
  38830000   301.48414      0              258.01679      524.92087     -0.01728646   
  38840000   304.91287      0              257.53185      527.47139      0.33287098   
  38850000   316.89558      0              275.38585      555.93369      1.2670295    
  38860000   291.12441      0              260.4078       518.14041     -1.2740377    
  38870000   310.39003      0              269.02537      543.81384      0.1677292    
  38880000   303.19818      0              262.95829      531.37981      1.5146141    
  38890000   283.54413      0              245.75995      496.78173     -0.36530656   
  38900000   310.41102      0              257.24162      532.04867     -0.035070702  
  38910000   295.681        0              253.74811      515.51468      0.79153157   
  38920000   311.28707      0              260.22094      535.80356      0.44000911   
  38930000   310.77176      0              239.52968      514.6561       0.21322344   
  38940000   316.56489      0              293.24044      573.49553      0.79535523   
  38950000   302.1038       0              243.43487      510.88754      0.68329022   
  38960000   303.56413      0              286.30975      555.05525     -0.71559223   
  38970000   302.94825      0              256.22839      524.42865     -0.36532501   
  38980000   285.11206      0              256.94854      509.35841      0.22940092   
  38990000   295.4313       0              259.15465      520.70015      0.73331356   
  39000000   325.72367      0              264.19264      552.556        1.6465862    
  39010000   321.1923       0              254.43484      538.78657      0.31403069   
  39020000   289.19308      0              283.44227      539.46507      0.70662178   
  39030000   317.32141      0              254.20496      535.12979     -0.76229535   
  39040000   292.96671      0              264.14024      523.50385      1.5519574    
  39050000   304.21503      0              247.37025      516.692       -1.2226807    
  39060000   327.02427      0              252.83648      542.35126      0.50506068   
  39070000   312.9345       0              249.46115      526.50225      1.6663324    
  39080000   290.93339      0              243.40955      500.97306      0.81237331   
  39090000   327.40941      0              281.03429      570.89003     -0.61259327   
  39100000   280.66358      0              277.30941      525.78104      0.41529803   
  39110000   324.5878       0              282.4051       569.76287      0.53224212   
  39120000   321.76702      0              276.44861      561.30914      2.357129     
  39130000   284.00709      0              263.81128      515.24292      1.2302821    
  39140000   276.24507      0              265.85782      510.41774     -0.97072031   
  39150000   307.21174      0              247.24314      519.21788     -0.90498018   
  39160000   311.60053      0              265.18631      541.04644     -2.1747785    
  39170000   305.5698       0              258.79518      529.31631      0.29302704   
  39180000   301.16902      0              258.45195      525.07706      0.76068689   
  39190000   318.58533      0              233.45106      515.49484     -0.48018972   
  39200000   322.42915      0              272.71389      558.16061     -1.3917491    
  39210000   285.9891       0              241.25203      494.43835      0.87552793   
  39220000   302.9052       0              255.84486      524.00701      0.38985422   
  39230000   299.61579      0              268.06696      533.31699     -2.4735438    
  39240000   286.62168      0              280.61517      534.3615       0.82999562   
  39250000   301.0176       0              249.42008      515.91113     -1.5717911    
  39260000   307.98568      0              261.66897      534.32887      1.4569272    
  39270000   300.88402      0              268.96324      535.33604     -0.89993949   
  39280000   299.5727       0              274.9355       540.14739      0.51866975   
  39290000   278.0729       0              259.22148      505.39958     -1.0131977    
  39300000   286.03908      0              250.69746      503.92802     -0.25027182   
  39310000   263.72155      0              249.90475      483.37759     -1.1992239    
  39320000   291.65378      0              273.49229      531.69355     -0.51450073   
  39330000   312.23844      0              271.71455      548.13942      0.39857956   
  39340000   294.14355      0              254.59656      515.00203     -0.62491457   
  39350000   291.72306      0              267.82113      526.08372      0.60789756   
  39360000   292.146        0              251.26043      509.89746      2.0336812    
  39370000   280.28412      0              270.83006      518.96575      0.61892279   
  39380000   303.76696      0              250.51501      519.44008     -0.45480624   
  39390000   310.23391      0              269.54007      544.19034      0.55594501   
  39400000   295.58787      0              252.35273      514.03684      0.44294506   
  39410000   302.66357      0              261.65139      529.59962     -0.70311873   
  39420000   292.33297      0              259.74905      518.5516      -1.1201681    
  39430000   314.52228      0              267.55811      546.00487      1.460784     
  39440000   322.71794      0              246.13116      531.83354     -0.20770404   
  39450000   293.09802      0              244.75113      504.23097     -0.17343925   
  39460000   300.12733      0              259.78928      525.49218     -2.0745033    
  39470000   277.17107      0              253.14361      498.52332      0.29809128   
  39480000   299.08253      0              248.87569      513.65363     -0.26517201   
  39490000   324.76926      0              274.61988      562.1383      -1.155325     
  39500000   293.19457      0              246.32386      505.88919      0.17716713   
  39510000   310.35888      0              255.59077      530.35167      0.21535213   
  39520000   290.73062      0              285.35334      542.73733      0.038604745  
  39530000   291.22502      0              268.08248      525.90416      1.1141893    
  39540000   312.33738      0              274.51923      551.03169      1.3132004    
  39550000   324.77323      0              239.44336      526.96529      0.64009873   
  39560000   302.54679      0              262.79939      530.64424     -0.38536762   
  39570000   318.87007      0              261.51863      543.81449      1.7246219    
  39580000   318.74516      0              266.03935      548.22463     -0.18101888   
  39590000   300.43084      0              245.12209      511.09368     -3.3489944    
  39600000   307.57538      0              263.43709      535.73376     -0.79884643   
  39610000   292.75005      0              268.9484       528.12019      0.43668391   
  39620000   291.16418      0              280.82409      538.59191      1.3101275    
  39630000   279.22534      0              245.96998      493.16833     -1.4196368    
  39640000   308.21746      0              252.77246      525.63755      0.27547826   
  39650000   287.44751      0              273.94352      528.42097      2.1168238    
  39660000   317.68155      0              233.47219      514.71586      0.29298536   
  39670000   323.72013      0              287.91254      574.50215      0.70415979   
  39680000   296.0523       0              247.58294      509.67821      0.071268433  
  39690000   311.67959      0              263.12675      539.05688      0.13031884   
  39700000   301.19653      0              274.74409      541.39355     -0.26043608   
  39710000   299.64653      0              273.33257      538.60982      0.26666526   
  39720000   299.77145      0              284.65405      550.04188     -0.36148307   
  39730000   291.47058      0              247.82686      505.86593     -1.0932537    
  39740000   320.46157      0              271.18195      554.88677      3.3281997    
  39750000   299.21435      0              269.28207      534.1767       1.334828     
  39760000   293.03696      0              246.33281      505.75861      0.32402564   
  39770000   337.78456      0              242.88366      541.92452      0.55745294   
  39780000   321.24753      0              273.35691      557.75753      1.4919581    
  39790000   314.56603      0              253.6899       532.1754       0.60693771   
  39800000   300.06426      0              267.44032      533.08738     -1.9937302    
  39810000   286.02348      0              268.05882      521.27557      0.98244774   
  39820000   275.27222      0              269.56121      513.25986     -0.10318411   
  39830000   302.28306      0              281.23858      548.84995      0.34305023   
  39840000   294.07605      0              254.71374      515.05944     -0.099019485  
  39850000   305.5316       0              268.77399      539.26129      0.44903769   
  39860000   304.85551      0              277.67716      547.56592      1.4109653    
  39870000   306.08456      0              242.33853      513.31537      0.10196066   
  39880000   302.4181       0              254.02023      521.75115      0.30106167   
  39890000   309.59446      0              248.41003      522.4942      -0.9416851    
  39900000   316.75364      0              269.01623      549.43842      2.1454575    
  39910000   298.42559      0              252.21927      516.41563     -0.12677086   
  39920000   303.24221      0              267.96596      536.42646     -0.077981247  
  39930000   319.28781      0              239.88518      522.55086      1.3425974    
  39940000   310.14263      0              273.65481      548.22426     -0.88843036   
  39950000   286.76443      0              262.4481       516.32082     -1.4331258    
  39960000   299.55063      0              275.66034      540.85269      0.89186288   
  39970000   305.15061      0              270.87038      541.0204      -0.85046838   
  39980000   292.60778      0              255.13028      514.17611     -0.071049836  
  39990000   288.14848      0              262.92816      518.02618     -0.45025524   
  40000000   301.23391      0              245.47644      512.159        0.48160857   
  40010000   297.09106      0              285.58856      548.60346      1.9749897    
  40020000   311.68618      0              271.34622      547.28219      0.38083035   
  40030000   287.87091      0              272.68344      527.53572     -1.4646815    
  40040000   327.15341      0              260.06415      549.69326     -0.17311249   
  40050000   320.95016      0              265.13402      549.27138      0.65836022   
  40060000   325.24219      0              255.58123      543.51833      0.011158199  
  40070000   352.82111      0              267.71772      580.07045      0.77936172   
  40080000   315.67714      0              248.76515      528.23431     -1.1764306    
  40090000   302.15274      0              265.2543       532.7503       0.27740561   
  40100000   282.93087      0              279.67164      530.1505      -2.1418306    
  40110000   305.25364      0              268.0372       538.27842     -0.3621139    
  40120000   300.96513      0              279.41902      545.86362      1.4554311    
  40130000   310.81184      0              282.93492      558.09682     -0.78803406   
  40140000   294.44848      0              260.80777      521.48319     -0.34091132   
  40150000   309.03601      0              278.06314      551.6529      -3.1391738    
  40160000   277.38299      0              262.21719      507.78452     -3.8754111    
  40170000   303.18126      0              280.14913      548.55568      0.1623835    
  40180000   331.11483      0              276.87514      570.01129     -1.0001099    
  40190000   316.68518      0              271.22062      551.58219      0.25971365   
  40200000   282.15112      0              261.74122      511.52977      0.22616469   
  40210000   291.10588      0              257.57699      515.2932      -0.16665093   
  40220000   311.46604      0              255.42736      531.16843      1.1252675    
  40230000   307.88851      0              278.66919      551.24307      0.23875916   
  40240000   294.41405      0              276.3437       536.98863     -0.64048146   
  40250000   296.25431      0              277.01527      539.28938      1.3720602    
  40260000   317.2108       0              277.46169      558.2886      -0.65701911   
  40270000   313.79095      0              280.751        558.5503       1.0838895    
  40280000   284.92737      0              268.57888      520.82524     -1.3476532    
  40290000   324.25702      0              267.21147      554.2764      -0.69716749   
  40300000   292.24108      0              252.80884      511.53003      0.09290791   
  40310000   300.66065      0              254.90792      521.08298     -0.32769171   
  40320000   292.13737      0              255.72903      514.35842     -0.67536305   
  40330000   319.33905      0              269.32317      552.03421     -0.86882332   
  40340000   295.3623       0              251.44262      512.92704     -1.3428093    
  40350000   305.14675      0              270.94517      541.09176      0.43997361   
  40360000   299.32115      0              237.67915      502.66834     -1.7335427    
  40370000   285.02313      0              270.92067      523.25182     -0.43260615   
  40380000   279.77406      0              268.00528      515.68942      0.73497617   
  40390000   290.91777      0              269.62076      527.17043     -1.6621571    
  40400000   315.14674      0              291.81252      570.81211      1.1772751    
  40410000   298.35008      0              268.28982      532.41932      0.49055147   
  40420000   280.89639      0              248.37617      497.05391      0.35727274   
  40430000   312.94807      0              256.62611      533.67922     -1.5623979    
  40440000   277.05299      0              285.76455      531.03972     -0.81689425   
  40450000   294.984        0              253.58547      514.73497     -0.048982094  
  40460000   307.76985      0              268.36988      540.8387      -0.54794968   
  40470000   311.77273      0              282.35427      558.36685     -1.0183       
  40480000   300.71992      0              262.23181      528.45933      0.20810616   
  40490000   308.64731      0              283.26608      556.51172      0.1577364    
  40500000   303.30583      0              246.08259      514.59942     -0.93354983   
  40510000   277.85574      0              281.95668      527.94254     -0.58741075   
  40520000   314.00357      0              285.35518      563.34272      0.726094     
  40530000   295.06601      0              249.28112      510.50323      1.0184305    
  40540000   301.53442      0              268.98874      535.93733     -0.69973242   
  40550000   304.53935      0              263.17463      532.78349      0.74037783   
  40560000   294.84059      0              261.96272      522.98527     -0.89451847   
  40570000   290.68995      0              248.50186      505.84984     -1.7229334    
  40580000   313.77773      0              270.00698      547.79459      1.7283644    
  40590000   319.91603      0              240.80254      524.02438     -0.020738349  
  40600000   314.01366      0              259.82532      537.8218      -0.029716018  
  40610000   306.97515      0              250.67623      522.44151      0.44826144   
  40620000   310.45844      0              268.18408      543.03312      1.1383951    
  40630000   301.66891      0              280.8366       547.90426     -0.5253667    
  40640000   306.90094      0              289.60394      561.30353     -1.2148687    
  40650000   280.02838      0              264.37593      512.28522      0.31711214   
  40660000   316.72193      0              274.21369      554.6078      -0.26044712   
  40670000   296.93814      0              263.24453      526.12404      0.025148243  
  40680000   304.2406       0              260.536        529.88038     -1.0769577    
  40690000   318.18155      0              277.29392      558.98023     -0.64959371   
  40700000   295.90067      0              279.4949       541.45594      1.8328009    
  40710000   291.45364      0              274.50888      532.53296     -0.66779254   
  40720000   307.79516      0              263.39285      535.88408      0.43580563   
  40730000   295.6847       0              263.72451      525.49435      0.79711392   
  40740000   311.56372      0              269.70912      545.53666     -0.018135729  
  40750000   306.07787      0              250.41324      521.38416      1.2077667    
  40760000   291.7366       0              280.18845      538.46304     -0.62184641   
  40770000   294.19348      0              264.43248      524.88214     -0.059689244  
  40780000   323.29187      0              256.34576      542.55624     -1.2372672    
  40790000   296.64711      0              265.93135      528.55321     -2.2873182    
  40800000   289.2928       0              278.73606      534.84715      1.7037116    
  40810000   320.01085      0              271.24608      554.55188      1.0755796    
  40820000   305.48849      0              255.11172      525.56087     -1.2257236    
  40830000   294.59789      0              268.28523      529.09291      1.7678632    
  40840000   305.683        0              281.07405      551.69538     -0.37328721   
  40850000   276.62614      0              257.24619      502.14347      0.62650607   
  40860000   285.00759      0              280.67522      532.99261      0.95808108   
  40870000   305.19696      0              270.67201      540.86306     -0.60357436   
  40880000   304.9142       0              268.20839      538.14911      0.62764255   
  40890000   310.11538      0              273.17075      547.71608      0.086291033  
  40900000   293.77575      0              249.46438      509.54423      0.83567336   
  40910000   306.39711      0              258.47452      529.72806     -0.7938333    
  40920000   283.88199      0              255.82433      507.14522      1.5923714    
  40930000   304.97716      0              259.68743      529.68388     -0.70654088   
  40940000   295.76545      0              277.19618      539.03751     -1.00505      
  40950000   281.13852      0              278.19053      527.08262     -0.25972032   
  40960000   290.07433      0              260.70036      517.50333      1.1292885    
  40970000   329.88123      0              240.3705       532.41454      0.13208577   
  40980000   296.45585      0              273.92085      536.37338     -2.1673536    
  40990000   303.62715      0              261.96516      530.76645     -1.602335     
  41000000   309.27111      0              264.18033      537.97822     -1.571585     
  41010000   289.65405      0              255.6094       512.0403       0.012330971  
  41020000   303.02085      0              250.98372      519.24825     -0.38566195   
  41030000   306.39576      0              254.01495      525.2673      -1.5385895    
  41040000   325.80129      0              271.70874      560.14081      2.491207     
  41050000   296.71314      0              266.19824      528.87856      0.60599479   
  41060000   320.35608      0              273.99568      557.6071      -0.25557468   
  41070000   300.88476      0              265.38294      531.75639      1.1672522    
  41080000   315.81425      0              261.09931      540.68985      0.21650328   
  41090000   290.69218      0              265.54558      522.89554      0.97363378   
  41100000   299.29237      0              264.4657       529.42941     -0.41883716   
  41110000   301.39161      0              288.05105      554.87321     -0.11507982   
  41120000   324.97924      0              259.40405      547.10836      1.5033731    
  41130000   267.68847      0              256.20781      493.19257     -0.28318151   
  41140000   306.51964      0              272.07379      543.43581     -0.23686734   
  41150000   287.37324      0              275.60589      530.01759     -0.67611678   
  41160000   301.23142      0              234.68109      501.36145      0.28787338   
  41170000   294.90369      0              270.00296      531.08136      0.68889746   
  41180000   281.19686      0              259.39508      508.33883      0.036458753  
  41190000   269.07449      0              284.03288      522.24469     -2.6510886    
  41200000   297.79337      0              261.5963       525.23295      0.25763494   
  41210000   301.24829      0              250.17288      516.86817     -0.65448061   
  41220000   330.92323      0              279.49875      572.46527      0.2366938    
  41230000   309.86617      0              261.74464      536.06935     -1.3115107    
  41240000   314.70521      0              254.9081       533.5168      -0.49752945   
  41250000   291.99217      0              268.02959      526.53043      1.1516578    
  41260000   287.05636      0              252.79996      506.93112     -0.96121981   
  41270000   291.65396      0              245.87944      504.08087      0.88005297   
  41280000   286.75856      0              265.35887      519.22639     -0.50626842   
  41290000   287.41799      0              262.513        516.96432     -0.72055222   
  41300000   274.88111      0              251.96149      495.3139      -0.28648522   
  41310000   312.85204      0              254.97002      531.93812      1.772778     
  41320000   293.2226       0              274.58549      534.17564     -0.036927576  
  41330000   322.22744      0              265.37094      550.63909      2.7678649    
  41340000   313.41103      0              255.2456       532.70857     -0.91511426   
  41350000   292.63763      0              288.28213      547.3544       2.1415851    
  41360000   327.18298      0              257.95339      547.60867      0.23277414   
  41370000   323.45356      0              243.71831      530.07194     -0.34208237   
  41380000   317.95472      0              266.96044      548.44594     -1.7442134    
  41390000   296.60851      0              253.94254      516.53023     -0.17612577   
  41400000   317.54835      0              264.9821       546.10785     -1.2186372    
  41410000   284.2785       0              261.2096       512.88152     -0.9090182    
  41420000   290.84882      0              271.02474      528.51337     -0.78453603   
  41430000   322.8523       0              263.18567      549.007        0.14937097   
  41440000   299.37312      0              258.20324      523.23844      1.5494945    
  41450000   277.889        0              245.58606      491.60136     -1.8384487    
  41460000   292.30358      0              279.75658      538.53312     -0.04884923   
  41470000   297.20488      0              267.28257      530.39822      1.1766808    
  41480000   328.68324      0              252.99704      543.9805      -1.2548258    
  41490000   309.16877      0              267.89689      541.60418     -0.17631525   
  41500000   302.79865      0              267.40733      535.47515     -0.32417081   
  41510000   308.87154      0              269.16397      542.60813      0.65817467   
  41520000   255.97871      0              278.33058      504.94868     -1.1992783    
  41530000   313.33565      0              261.9955       539.39173      1.8769982    
  41540000   327.36673      0              290.54802      580.36598      1.3704661    
  41550000   292.55082      0              286.01663      545.01204      0.064940262  
  41560000   295.59147      0              263.67832      525.36563      1.7475758    
  41570000   275.24257      0              273.3028       516.97521      0.329403     
  41580000   287.10204      0              273.95188      528.12349      0.66251073   
  41590000   303.73906      0              266.16457      535.06494      1.2177536    
  41600000   294.46614      0              258.23337      518.92441     -0.44260216   
  41610000   303.95201      0              259.04635      528.13524     -0.41881448   
  41620000   311.80791      0              293.29483      569.33855      0.032238427  
  41630000   292.8254       0              257.86965      517.10815     -1.543492     
  41640000   302.7522       0              264.16859      532.1953      -0.20356478   
  41650000   302.17792      0              266.54596      534.06426     -0.83392316   
  41660000   321.37375      0              284.27026      568.78264      0.26356245   
  41670000   310.318        0              254.25883      528.98354     -0.65373379   
  41680000   298.4688       0              251.38628      515.62089      0.50688027   
  41690000   332.56264      0              274.08817      568.50607     -0.35845994   
  41700000   289.18825      0              239.09987      495.11839     -0.7586238    
  41710000   301.93125      0              255.00147      522.30138     -0.5792875    
  41720000   271.92759      0              274.33866      515.07632     -1.1577464    
  41730000   307.92728      0              262.065        534.6732       0.43862206   
  41740000   313.24268      0              262.60102      539.91495     -0.40480621   
  41750000   308.10132      0              277.38979      550.15207     -1.3879523    
  41760000   312.66816      0              270.40675      547.21206     -1.1314688    
  41770000   281.35938      0              256.40309      505.49071      1.1187509    
  41780000   308.04063      0              283.45421      556.16276     -1.2320253    
  41790000   258.36748      0              265.98161      494.7145       0.060349129  
  41800000   305.94478      0              245.60407      516.45716     -0.95276054   
  41810000   293.46607      0              257.58868      517.39436     -1.8892912    
  41820000   296.17604      0              240.37957      502.5844       0.47293861   
  41830000   307.36921      0              250.71723      522.83138      1.3183435    
  41840000   291.01578      0              272.80495      530.44139     -0.20265578   
  41850000   301.81308      0              278.42744      545.62273     -0.27577594   
  41860000   291.72511      0              276.78071      535.04513     -0.388081     
  41870000   288.85476      0              272.11524      527.83853     -0.32421016   
  41880000   301.10279      0              232.27769      498.84416     -0.48580011   
  41890000   297.19573      0              235.98541      499.09297      0.25813406   
  41900000   273.03034      0              270.34237      512.05629      2.097752     
  41910000   313.05085      0              256.94833      534.09242      0.79019335   
  41920000   311.49476      0              285.09095      560.85744     -0.12406272   
  41930000   292.6862       0              279.34064      538.4559       0.153984     
  41940000   299.00648      0              250.65094      515.36155      0.82313375   
  41950000   319.78231      0              288.09957      571.20304      0.59985023   
  41960000   299.57749      0              255.64592      520.86205      1.1383956    
  41970000   300.76928      0              283.32963      549.60085      1.9050664    
  41980000   305.51874      0              279.97146      550.44738     -0.56025104   
  41990000   283.66111      0              244.59496      495.72032      1.0239821    
  42000000   313.47091      0              248.49831      526.01429      0.11317598   
  42010000   284.40957      0              263.33874      515.1267       1.1242423    
  42020000   285.8574       0              264.28791      517.35764      0.30781527   
  42030000   307.34803      0              286.80065      558.89605      1.0812373    
  42040000   274.14404      0              248.71186      491.41174      0.66134032   
  42050000   286.7846       0              272.19623      526.0868      -0.90906796   
  42060000   305.82817      0              249.42159      520.17145     -0.7464202    
  42070000   333.06675      0              285.98615      580.85034     -0.2661455    
  42080000   301.14635      0              279.30237      545.90742      0.48554456   
  42090000   292.58502      0              287.1366       546.16229     -1.2328324    
  42100000   301.26951      0              263.77747      530.49155     -0.86864696   
  42110000   302.85759      0              273.53184      541.65184      1.6578621    
  42120000   306.29031      0              256.04191      527.20089      1.1325319    
  42130000   317.08337      0              256.59441      537.30851      0.84729626   
  42140000   296.89682      0              251.50753      514.35045     -0.068449619  
  42150000   309.13006      0              295.54255      569.21558     -0.27379583   
  42160000   304.69569      0              264.71065      534.45792     -1.3150951    
  42170000   293.5478       0              245.76044      505.63848     -0.99493587   
  42180000   311.09727      0              235.27126      510.68585     -0.51411135   
  42190000   289.49212      0              249.45931      505.74685     -2.410938     
  42200000   293.06615      0              259.49127      518.9429       0.39178566   
  42210000   291.50577      0              272.18976      530.25999     -0.48598612   
  42220000   295.73846      0              261.84532      523.66275     -0.97497693   
  42230000   295.56188      0              261.09727      522.75838      1.0910056    
  42240000   322.44894      0              261.51237      546.9766       0.91707201   
  42250000   317.49367      0              276.65292      557.73025      0.021643175  
  42260000   266.32719      0              258.3153       494.09491      1.0020895    
  42270000   310.82604      0              265.22233      540.39681     -0.10777718   
  42280000   317.05279      0              251.79079      532.47781      0.94242648   
  42290000   281.21693      0              272.18302      521.14453      0.96694023   
  42300000   300.66172      0              248.02391      514.1999       2.5507166    
  42310000   307.69273      0              273.72472      546.12528      0.95591344   
  42320000   311.52329      0              270.18468      545.97642      0.18609801   
  42330000   297.13622      0              260.68194      523.73682     -0.4103734    
  42340000   297.04756      0              240.40219      503.37857     -0.079029848  
  42350000   304.78719      0              269.10902      538.93729      1.2925178    
  42360000   298.66047      0              260.33505      524.73934     -0.043669752  
  42370000   308.6145       0              264.06835      537.28495     -1.3437443    
  42380000   321.16547      0              223.5394       507.86738      0.13261973   
  42390000   301.07489      0              248.04311      514.58488     -0.010915247  
  42400000   320.4629       0              252.64077      536.34677     -0.57249395   
  42410000   317.57778      0              265.21419      546.36599      1.0041496    
  42420000   294.27515      0              273.53755      534.05951     -2.4497852    
  42430000   287.42132      0              268.88128      523.33554      0.93960033   
  42440000   294.02209      0              260.45629      520.75421     -0.8275686    
  42450000   316.02477      0              278.75732      558.53424     -0.1131695    
  42460000   305.85696      0              264.1059       534.88124     -1.5979431    
  42470000   319.82539      0              266.13544      549.27704     -0.69661774   
  42480000   312.07008      0              260.23362      536.50944     -0.6444275    
  42490000   305.81939      0              253.90384      524.64593      0.23994343   
  42500000   303.42133      0              278.31995      546.93903      0.12892198   
  42510000   284.46821      0              262.03606      513.87594      1.2992922    
  42520000   289.40956      0              234.62997      490.84442      0.0075029384 
  42530000   304.66654      0              250.06497      519.78643     -0.43450434   
  42540000   333.89737      0              258.13795      553.73749      1.1735044    
  42550000   322.17501      0              303.94868      589.17041     -0.97049099   
  42560000   276.00233      0              262.11673      506.46175     -0.84853665   
  42570000   275.85106      0              255.44071      499.65181     -0.17222041   
  42580000   295.7207       0              260.49751      522.29921     -1.1281932    
  42590000   293.04991      0              289.26328      548.70053     -2.3999697    
  42600000   324.52172      0              252.60392      539.90319      0.33522117   
  42610000   300.38074      0              268.11121      534.03846     -0.24663331   
  42620000   305.21068      0              271.28383      541.48702      1.2507267    
  42630000   272.66319      0              287.82325      529.21214     -0.22447252   
  42640000   308.79111      0              256.70928      530.08224      0.50309524   
  42650000   336.5357       0              270.08425      568.01951      2.0674402    
  42660000   285.8589       0              279.34804      532.41909     -0.62369475   
  42670000   299.36349      0              260.80738      525.83405     -0.97865481   
  42680000   304.33803      0              273.18157      542.61221      1.4348343    
  42690000   312.35929      0              274.25693      550.78879      0.27740712   
  42700000   316.18685      0              248.04526      527.96566      0.61514882   
  42710000   319.0835       0              255.7413       538.22611     -0.30809098   
  42720000   317.84117      0              268.63774      550.02272     -0.4906377    
  42730000   324.11647      0              252.61805      539.55854      1.1886188    
  42740000   285.89335      0              255.80547      508.90702      0.19827253   
  42750000   303.2839       0              278.16982      546.66724      0.12348394   
  42760000   287.25137      0              261.06994      515.37375     -1.0221896    
  42770000   300.5844       0              247.1971       513.30465      0.85374231   
  42780000   296.27503      0              270.55342      532.84588      0.66327849   
  42790000   267.357        0              278.74225      515.43356     -1.7887256    
  42800000   305.94847      0              262.4209       533.27726     -0.06442727   
  42810000   294.87211      0              266.15239      527.20284      0.47075946   
  42820000   301.75373      0              266.74187      533.88462      0.66115617   
  42830000   298.53099      0              263.15005      527.43971     -0.21015932   
  42840000   317.27504      0              267.03603      547.91981     -0.010584598  
  42850000   317.99879      0              275.72248      557.24699     -2.0851088    
  42860000   291.62674      0              247.63735      505.81467      0.35495242   
  42870000   321.58191      0              263.49697      548.19362     -0.063574916  
  42880000   295.90731      0              269.38136      531.34828      1.8240581    
  42890000   313.72758      0              247.47409      525.2173      -0.67525939   
  42900000   291.95767      0              264.40811      522.87841      0.38220466   
  42910000   315.35533      0              244.58953      523.77379     -0.025548571  
  42920000   316.99943      0              260.41803      541.05781      0.33639085   
  42930000   324.35381      0              254.57032      541.72094     -0.9979027    
  42940000   293.73094      0              257.7751       517.81528      0.2401129    
  42950000   293.44059      0              269.87379      529.65692      0.12989526   
  42960000   310.48163      0              270.66774      545.5373       1.2618011    
  42970000   313.38927      0              284.81474      562.25845     -1.4668294    
  42980000   317.79301      0              264.15705      545.49939     -0.34413776   
  42990000   290.83306      0              248.41854      505.89322     -1.0679113    
  43000000   300.02304      0              263.62367      529.23425      0.33128477   
  43010000   287.08309      0              249.67206      503.82689     -1.2851173    
  43020000   293.9186       0              263.32806      523.53437     -0.88403117   
  43030000   289.17945      0              231.12179      487.13252      2.0096001    
  43040000   298.29396      0              298.78867      562.86849     -1.2487611    
  43050000   285.44202      0              293.06858      545.77057     -1.1055439    
  43060000   270.3259       0              257.6622       496.98188      0.75549165   
  43070000   300.57541      0              275.58126      541.68085     -0.54903072   
  43080000   312.18262      0              263.8056       540.18105      1.2582615    
  43090000   290.41946      0              260.96918      518.0777      -0.31439432   
  43100000   295.73253      0              279.46826      541.28044     -0.62531398   
  43110000   289.31999      0              262.98778      519.12294      0.3776763    
  43120000   322.7349       0              271.41322      557.13062      0.5549162    
  43130000   287.83728      0              262.0194       516.84191     -0.81277976   
  43140000   316.70853      0              262.90297      543.28522      0.7047781    
  43150000   310.51191      0              261.29807      536.19444     -1.2163684    
  43160000   292.48154      0              251.69022      510.6243       1.1287534    
  43170000   293.65685      0              254.65513      514.62971     -0.64765096   
  43180000   287.6614       0              267.04079      521.7076       1.7308923    
  43190000   280.80559      0              265.93782      514.53516     -0.34727085   
  43200000   340.22584      0              246.52164      547.72377     -1.588921     
  43210000   322.74125      0              266.07019      551.7932      -0.63281662   
  43220000   303.02426      0              269.25577      537.52332     -0.85235589   
  43230000   279.13949      0              279.46471      526.58707     -1.0639627    
  43240000   304.34049      0              273.49585      542.92866     -0.098287574  
  43250000   299.83728      0              246.22168      511.66781     -0.10864821   
  43260000   290.31725      0              264.53635      521.55438     -0.81769813   
  43270000   298.97308      0              268.55367      533.23471      0.89894531   
  43280000   313.41533      0              250.39468      527.86145     -1.3486135    
  43290000   266.53566      0              269.43764      505.40182     -0.018987929  
  43300000   290.5025       0              272.88043      530.06247      0.14682388   
  43310000   321.36245      0              283.4996       568.00196     -1.1620221    
  43320000   312.7665       0              244.04549      520.93785      0.24020875   
  43330000   274.52088      0              265.78888      508.82238      0.54407264   
  43340000   317.03739      0              267.13859      547.81197      0.95025858   
  43350000   294.00335      0              261.02575      521.30709      0.64915443   
  43360000   311.32076      0              259.72706      535.33952     -0.63971299   
  43370000   268.92762      0              276.00232      514.0841       0.27893532   
  43380000   304.02387      0              267.73396      536.88646      0.30385827   
  43390000   328.77602      0              277.20228      568.26789      0.17624038   
  43400000   303.97078      0              284.58134      553.68685     -1.1492331    
  43410000   316.90658      0              264.08414      544.64172      1.0893187    
  43420000   295.28843      0              254.2937       515.71272     -0.72914946   
  43430000   298.65084      0              246.22841      510.62417     -0.92184878   
  43440000   294.35381      0              271.24921      531.84081      0.95066193   
  43450000   306.10888      0              261.92283      532.92119     -1.0091917    
  43460000   322.30075      0              255.66336      540.99641      0.30158479   
  43470000   308.60506      0              250.89773      524.10598      0.1609857    
  43480000   310.20179      0              272.36611      546.98793     -0.94861026   
  43490000   324.73135      0              272.09807      559.58292     -0.50717448   
  43500000   283.58686      0              262.78364      513.84325     -1.0066499    
  43510000   305.17212      0              274.98784      545.15689      1.7690538    
  43520000   294.94611      0              264.30716      525.42312      0.62249721   
  43530000   305.03506      0              247.09239      517.14011     -1.567516     
  43540000   335.97843      0              255.78549      553.22738      0.6822137    
  43550000   331.00947      0              276.88265      569.92553      1.7675423    
  43560000   311.33447      0              258.3399       533.96449     -0.59241756   
  43570000   277.88682      0              280.30422      526.31759      0.842103     
  43580000   318.30467      0              265.87726      547.67257     -0.51155814   
  43590000   304.36877      0              282.42873      551.88658     -0.36171518   
  43600000   314.79981      0              264.05625      542.74871     -0.36942796   
  43610000   273.36122      0              280.17616      522.18301     -0.9001285    
  43620000   283.71274      0              263.08467      514.25572     -0.90744071   
  43630000   283.11105      0              253.97842      504.6168      -1.1869049    
  43640000   286.00575      0              278.15175      531.3528       1.3586402    
  43650000   314.54387      0              259.76678      538.23265      0.44602739   
  43660000   324.08326      0              250.58304      537.49414      0.97552866   
  43670000   294.72524      0              275.78915      536.70958     -1.5200611    
  43680000   312.23741      0              279.41867      555.84263      2.0979798    
  43690000   306.48226      0              270.08648      541.4154       1.4121944    
  43700000   321.12551      0              255.42118      539.71378     -0.078768493  
  43710000   289.67782      0              280.40788      536.85982     -1.258188     
  43720000   306.82392      0              251.42417      523.05556      1.2035032    
  43730000   329.40845      0              270.05         561.6755      -0.97686308   
  43740000   320.97508      0              264.13883      548.29826      0.96326202   
  43750000   303.23018      0              259.32571      527.77557      0.034321457  
  43760000   319.69117      0              248.40683      531.4296      -0.020001587  
  43770000   272.22502      0              241.27044      482.2714       0.66516948   
  43780000   301.81675      0              266.15163      533.35017      0.15312894   
  43790000   321.81485      0              260.46072      545.36359      0.44401368   
  43800000   277.08438      0              276.24204      521.545        0.24389749   
  43810000   313.70628      0              247.80281      525.52717      0.41912032   
  43820000   294.55213      0              266.78674      527.55391     -0.085302513  
  43830000   291.33017      0              247.81478      505.72955      0.48559487   
  43840000   299.51985      0              270.00524      535.17034     -1.1195101    
  43850000   288.00168      0              284.87546      539.84352     -0.52199165   
  43860000   300.98749      0              257.63193      524.09633     -0.15542088   
  43870000   292.46645      0              249.29432      508.21504     -0.41631807   
  43880000   303.74163      0              243.88936      512.792        0.44351826   
  43890000   314.67938      0              260.37472      538.96056      0.116573     
  43900000   300.31364      0              252.07181      517.93965     -1.8225015    
  43910000   328.34786      0              247.30231      537.98886      0.44958715   
  43920000   293.33461      0              254.95688      514.64618     -0.94644398   
  43930000   291.21315      0              258.34663      516.1578       1.9029586    
  43940000   297.22939      0              275.57741      538.71477      0.094523493  
  43950000   305.27704      0              275.10917      545.37111      0.28121608   
  43960000   313.35183      0              279.42303      556.83359     -0.63378106   
  43970000   333.15813      0              251.03976      545.98486      0.094623944  
  43980000   297.03245      0              255.96015      518.92315      0.59255822   
  43990000   283.46097      0              264.80998      515.75814     -1.8678408    
  44000000   300.34533      0              259.03513      524.93103     -0.51533167   
  44010000   293.36756      0              251.66827      511.38675      0.29024659   
  44020000   284.4698       0              248.33773      500.17901     -1.4247143    
  44030000   303.57925      0              252.67704      521.43593     -0.86606352   
  44040000   309.77022      0              265.49766      539.73742     -0.58729194   
  44050000   272.78068      0              254.85986      496.35276      0.50270318   
  44060000   301.59639      0              254.34441      521.34787      1.4111226    
  44070000   313.57238      0              245.93086      523.53667      0.51279267   
  44080000   305.05789      0              277.35093      547.41886      0.19437852   
  44090000   287.10727      0              274.4444       528.62064     -0.77821894   
  44100000   286.56351      0              241.66236      495.3572       1.2636474    
  44110000   317.94291      0              291.00751      572.48255     -0.45131882   
  44120000   319.41243      0              256.36815      539.14415     -0.47541803   
  44130000   313.49604      0              264.92596      542.46419     -0.10148332   
  44140000   305.65927      0              274.52329      545.12362     -0.59713114   
  44150000   323.01524      0              276.50161      562.46718      0.19044213   
  44160000   315.59581      0              250.22205      529.6192       1.3499571    
  44170000   278.47606      0              262.63618      509.17119      0.090972404  
  44180000   327.33365      0              270.77058      560.55926      2.0123139    
  44190000   290.73921      0              256.56835      513.95994      1.0648454    
  44200000   281.58327      0              260.07847      509.3643       0.27081739   
  44210000   324.31765      0              269.8551       556.9737      -0.48470937   
  44220000   285.66187      0              264.50963      517.40625     -0.67699994   
  44230000   316.49359      0              259.47307      539.66503      0.32409208   
  44240000   312.7446       0              274.83857      551.71155     -1.7255496    
  44250000   291.64949      0              266.86254      525.06001      1.2503768    
  44260000   285.63113      0              276.84433      529.71374      0.34065254   
  44270000   304.75767      0              282.42073      552.22288     -0.65513135   
  44280000   311.57819      0              259.27408      535.11443     -1.2258616    
  44290000   318.04104      0              284.97248      566.53439      1.9480386    
  44300000   302.5761       0              258.31533      526.18612      1.8792491    
  44310000   289.17284      0              274.80509      530.80997     -0.94128262   
  44320000   271.88726      0              248.81487      489.51682     -0.4070789    
  44330000   305.6829       0              265.40044      536.02169     -1.4914001    
  44340000   301.01198      0              257.39667      523.88275      0.27918477   
  44350000   319.95962      0              244.89974      528.16018      0.093624445  
  44360000   293.06655      0              262.26095      521.71293      0.66677052   
  44370000   303.79187      0              270.47855      539.42567     -0.3358673    
  44380000   285.67617      0              263.23679      516.14608     -0.48234134   
  44390000   320.55913      0              277.08508      560.87627     -0.56459049   
  44400000   273.62559      0              256.89489      499.13578      1.064785     
  44410000   303.80218      0              262.29729      531.25353      0.75512953   
  44420000   325.67867      0              272.90047      561.22398      0.013185509  
  44430000   305.01907      0              268.24624      538.2798      -0.78474052   
  44440000   288.84962      0              273.74925      529.46799     -0.72142808   
  44450000   311.63525      0              264.02868      539.91955     -0.72050592   
  44460000   308.87098      0              258.96946      532.41312     -1.2503297    
  44470000   314.51847      0              262.42815      540.87153      1.3815663    
  44480000   308.4105       0              263.28522      536.32122     -1.3987215    
  44490000   291.08764      0              265.66805      523.36811      0.58073684   
  44500000   294.63987      0              263.13293      523.97778      1.8349233    
  44510000   268.95692      0              282.09006      520.19778     -1.7518801    
  44520000   278.13436      0              252.95386      499.18637     -0.72328063   
  44530000   293.02616      0              252.59057      512.0068      -1.1023185    
  44540000   322.6619       0              246.64489      532.29766      0.33879181   
  44550000   308.09812      0              252.15642      524.91586     -3.3837345    
  44560000   298.11328      0              255.87874      519.79861     -0.56032328   
  44570000   330.90254      0              255.74311      548.69132      0.32892786   
  44580000   298.42883      0              244.80257      509.00179      0.77808253   
  44590000   309.33227      0              259.91386      533.7659       1.5700448    
  44600000   297.43843      0              271.92994      535.25235     -0.88902251   
  44610000   307.36622      0              270.21331      542.3248      -1.1991104    
  44620000   302.56225      0              243.19551      511.05404     -0.50273571   
  44630000   306.92167      0              254.48557      526.20351     -0.90879027   
  44640000   306.01393      0              260.4265       531.34081     -0.47369339   
  44650000   303.66599      0              255.55175      524.38743     -0.89231639   
  44660000   316.73246      0              269.00075      549.40418      0.46821896   
  44670000   295.78663      0              242.41233      504.27241      0.11070229   
  44680000   295.48528      0              265.23933      526.83263     -0.2202966    
  44690000   295.21788      0              264.87425      526.23081     -0.16394911   
  44700000   264.52006      0              268.14021      502.31997     -0.19266774   
  44710000   296.65651      0              268.35515      530.98533      1.346715     
  44720000   285.40385      0              286.87257      539.54076     -0.46831442   
  44730000   297.60551      0              290.67131      554.14165      1.1181735    
  44740000   323.96719      0              269.58122      556.38957     -0.25224595   
  44750000   296.00909      0              282.87061      544.92763      0.15456093   
  44760000   293.94812      0              259.37743      519.60987      0.3726325    
  44770000   288.24792      0              267.79821      522.98426      1.1624792    
  44780000   290.39542      0              261.83938      518.92662      1.3301265    
  44790000   300.48121      0              240.84248      506.85867      0.91321097   
  44800000   304.51338      0              269.85776      539.44363     -0.39157766   
  44810000   303.84528      0              246.99492      515.98933     -1.3513811    
  44820000   290.70251      0              265.9554       523.31451     -0.84431847   
  44830000   303.82217      0              264.39233      533.36628     -1.6284887    
  44840000   309.1959       0              268.11675      541.84806     -0.91363306   
  44850000   311.09271      0              242.07854      517.4891       0.061502704  
  44860000   262.50734      0              274.51845      506.91634      0.9704396    
  44870000   299.89203      0              266.31706      531.81166      0.39834896   
  44880000   273.06005      0              243.60743      485.34765     -0.88602959   
  44890000   327.09616      0              280.44338      570.0218      -1.448045     
  44900000   312.66547      0              278.84617      555.64909     -0.32119757   
  44910000   283.06225      0              265.73628      516.33145      0.28796517   
  44920000   324.84406      0              274.43838      562.02301      0.11673287   
  44930000   286.5411       0              273.66349      527.33849     -0.13369167   
  44940000   290.33046      0              248.2532       505.28292      0.6013721    
  44950000   320.25766      0              278.65582      562.18011      1.1309971    
  44960000   317.40213      0              248.50258      529.49887      0.97339821   
  44970000   279.93821      0              270.11967      517.94913     -0.60596515   
  44980000   291.46119      0              276.6434       534.67416      0.16056876   
  44990000   294.4765       0              277.11826      537.81848     -0.57078293   
  45000000   294.5122       0              271.14435      531.87617     -0.68561869   
  45010000   292.20571      0              277.93611      536.626        0.22151409   
  45020000   282.14376      0              271.71865      521.50068     -1.3018168    
  45030000   300.02423      0              256.07401      521.68564      0.83537261   
  45040000   315.11507      0              256.29389      535.26545      0.68761909   
  45050000   295.30505      0              261.61619      523.04993      1.5733043    
  45060000   307.69514      0              259.94356      532.34625     -0.64798004   
  45070000   283.11643      0              247.96934      498.61249      2.0410571    
  45080000   300.33696      0              253.36836      519.25685      0.64950859   
  45090000   283.65369      0              250.35321      501.47198     -0.5251385    
  45100000   294.84711      0              258.31897      519.34729      0.067429847  
  45110000   291.1368       0              259.42782      517.1714      -0.59399196   
  45120000   305.22324      0              264.98277      535.19708     -0.97085967   
  45130000   320.55879      0              268.01833      551.80922      1.3190636    
  45140000   295.48814      0              271.08019      532.67601     -0.40269165   
  45150000   312.21456      0              265.09977      541.5035       1.6008827    
  45160000   320.87626      0              277.24745      561.3194      -0.79787936   
  45170000   316.64611      0              267.99278      548.31977     -0.078334039  
  45180000   314.32253      0              262.00175      540.27166     -0.21476323   
  45190000   291.50218      0              258.70921      516.77626      0.40999332   
  45200000   305.47351      0              266.87154      537.30742     -0.23874286   
  45210000   280.42271      0              249.17618      497.43457     -0.80012472   
  45220000   296.38899      0              281.28176      543.6751      -0.16170753   
  45230000   315.5362       0              264.10963      543.45401     -1.5478635    
  45240000   302.07578      0              286.90253      554.33039      0.02804712   
  45250000   314.35577      0              259.40504      537.70439     -0.055484957  
  45260000   339.52212      0              277.39265      577.97178     -0.25492997   
  45270000   302.22758      0              246.82201      514.38426      1.1492466    
  45280000   291.38546      0              250.82688      508.7906      -1.1054201    
  45290000   305.02739      0              266.09064      536.13157      0.27502865   
  45300000   337.98877      0              271.16844      570.39009      0.27392174   
  45310000   294.87303      0              263.1874       524.23866     -1.1136835    
  45320000   281.84135      0              257.637        507.15131      0.2411151    
  45330000   288.95555      0              266.85223      522.66474     -1.1018351    
  45340000   320.62781      0              253.09514      536.94713      0.071837015  
  45350000   314.5378       0              264.97844      543.43894     -1.5622801    
  45360000   301.38106      0              240.37435      507.18718      0.11711025   
  45370000   300.16675      0              264.98563      530.72343      0.75217262   
  45380000   271.30901      0              245.52337      485.7134       1.0230522    
  45390000   318.00602      0              244.23629      525.7672      -0.22916315   
  45400000   316.80018      0              250.61673      531.08011      0.77475793   
  45410000   281.0652       0              272.7519       521.57909      1.6450939    
  45420000   293.68292      0              270.13119      530.12884      0.83268015   
  45430000   283.87614      0              256.95417      508.26988     -1.0562271    
  45440000   297.89267      0              278.8302       542.55475      0.50875982   
  45450000   316.21685      0              245.86294      525.8099       0.2726492    
  45460000   294.0982       0              261.61244      521.97775      0.22685539   
  45470000   305.47764      0              271.25622      541.69575     -0.63586371   
  45480000   300.06618      0              275.28979      540.93856     -2.495022     
  45490000   311.64815      0              264.93284      540.83513     -1.8995579    
  45500000   283.71494      0              258.15816      509.33116      1.3063948    
  45510000   319.34716      0              258.41997      541.1382      -1.3062581    
  45520000   279.53376      0              261.63896      509.11037      1.2502474    
  45530000   293.73854      0              270.55035      530.59725     -1.2016316    
  45540000   300.64227      0              255.3614       521.52017     -0.6192537    
  45550000   305.1808       0              259.29506      529.4718       0.6908211    
  45560000   301.1175       0              245.85168      512.43117      1.6570959    
  45570000   291.03456      0              279.40368      537.05674      0.70864988   
  45580000   323.45187      0              253.36111      539.71324     -2.1980386    
  45590000   284.91173      0              251.07741      503.30993     -0.62368753   
  45600000   310.48856      0              260.54551      535.42121      1.8106853    
  45610000   300.43704      0              270.02891      536.00599      0.80387175   
  45620000   318.59259      0              254.14867      536.19887     -0.53756293   
  45630000   287.4454       0              264.87564      519.35122      0.082413512  
  45640000   293.54579      0              272.12988      532.00613      1.0292383    
  45650000   315.24616      0              267.63911      546.72673      0.20467675   
  45660000   320.95776      0              276.12525      560.26934     -0.90877593   
  45670000   309.05933      0              265.70465      539.31505      0.42672664   
  45680000   309.76517      0              264.28978      538.52507     -0.34992881   
  45690000   292.6912       0              280.673        539.79269     -0.81281842   
  45700000   286.48125      0              271.57541      525.19743     -0.99264508   
  45710000   296.72937      0              267.49895      530.19364     -2.3680086    
  45720000   308.8452       0              258.30568      531.72652     -0.55228141   
  45730000   311.7857       0              300.64991      576.67396     -0.47862351   
  45740000   309.24894      0              273.70229      547.48056      0.45648609   
  45750000   314.04145      0              258.61589      536.63697     -0.80949312   
  45760000   297.8507       0              263.62767      527.31507     -0.61993644   
  45770000   295.37477      0              259.65946      521.15492      0.39236261   
  45780000   284.31634      0              258.28483      509.99025     -0.87043471   
  45790000   321.46501      0              287.09197      571.68513      0.60508387   
  45800000   317.20566      0              255.49832      536.32067      0.26483813   
  45810000   307.15547      0              283.45202      555.37694     -0.52999138   
  45820000   324.01305      0              270.12094      556.96988      1.1980084    
  45830000   297.93971      0              261.0782       524.84441      0.37159765   
  45840000   303.72561      0              260.63187      529.52033     -0.45898593   
  45850000   311.99412      0              258.56042      534.769        0.33158998   
  45860000   308.04737      0              265.39385      538.10837      0.54087856   
  45870000   299.74627      0              256.36441      521.72996     -0.93597446   
  45880000   299.03966      0              251.9208       516.66079      0.58639016   
  45890000   315.60768      0              287.1466       566.55426      0.92292655   
  45900000   313.09546      0              280.91712      558.10071     -0.67100138   
  45910000   293.17098      0              283.72496      543.2694       1.163034     
  45920000   285.42177      0              289.23644      541.92051     -0.52502742   
  45930000   288.16625      0              262.91745      518.0312      -0.46147281   
  45940000   317.9317       0              273.28441      554.74953      1.0015908    
  45950000   295.52013      0              271.2699       532.89405      1.20487      
  45960000   300.48439      0              248.02502      514.04402     -0.30922221   
  45970000   305.26956      0              262.53788      532.7932       1.1259457    
  45980000   327.59799      0              268.24447      558.26716      0.64644399   
  45990000   311.18268      0              278.80444      554.29466     -1.3220969    
  46000000   303.1937       0              285.38632      553.80388     -0.19330797   
  46010000   274.22296      0              281.08949      523.85924      0.99481261   
  46020000   317.09962      0              271.39072      552.1192       0.10247838   
  46030000   287.77999      0              246.59819      501.36998     -0.06503858   
  46040000   297.61923      0              257.01676      520.49924      1.4523365    
  46050000   302.92104      0              277.0219       545.19807     -1.4921487    
  46060000   302.64984      0              245.1372       513.07328      0.87573493   
  46070000   299.65794      0              289.69451      554.98186      0.89278302   
  46080000   277.81282      0              245.64496      491.59281      0.369397     
  46090000   310.32627      0              236.30454      511.03656      0.26352803   
  46100000   314.38869      0              268.12009      546.44858      0.94812317   
  46110000   288.75108      0              262.5957       518.2272       0.37249143   
  46120000   299.64137      0              266.5374       531.81008     -1.9099903    
  46130000   295.224        0              239.902        501.26398     -1.0438668    
  46140000   292.85758      0              245.31211      504.5791      -2.6090013    
  46150000   287.12437      0              255.30608      509.49744      0.91491581   
  46160000   321.49707      0              274.6237       559.24524      0.56369961   
  46170000   307.81934      0              284.85199      557.36463     -0.65419638   
  46180000   298.67243      0              262.29373      526.70861      0.77704263   
  46190000   310.79807      0              273.26475      548.41447     -1.3269493    
  46200000   305.9228       0              249.31551      520.14914     -0.32054787   
  46210000   297.48854      0              281.54795      544.91473     -0.034592629  
  46220000   303.85718      0              275.79746      544.80239      0.90295244   
  46230000   312.76506      0              266.91054      543.80163     -0.6050011    
  46240000   294.82111      0              278.87655      539.88185      0.36649035   
  46250000   318.77244      0              253.157        535.36643      1.4474132    
  46260000   317.4614       0              264.35431      545.40307      0.23108758   
  46270000   305.38711      0              250.80594      521.16532      0.87967526   
  46280000   310.54473      0              259.62273      534.54816     -0.45956272   
  46290000   298.39912      0              256.10248      520.2754       2.755837     
  46300000   311.31109      0              281.80434      557.40823     -0.17309472   
  46310000   293.29331      0              275.86798      535.52072     -1.5050752    
  46320000   261.78392      0              277.0524       508.80986     -2.1962653    
  46330000   297.03306      0              278.41125      541.37479     -1.6570245    
  46340000   299.4739       0              279.20209      544.32651     -3.0482402    
  46350000   282.72608      0              252.11904      502.4166      -1.7052973    
  46360000   304.95377      0              243.6874       513.66315     -0.47848387   
  46370000   292.19623      0              282.94591      541.6274      -0.60659929   
  46380000   327.02664      0              266.56502      556.08189      0.21580322   
  46390000   286.57467      0              278.36751      532.07223      0.16426403   
  46400000   309.9154       0              276.6096       550.97788      0.17706382   
  46410000   272.01098      0              268.18059      508.99207     -0.37170478   
  46420000   293.55461      0              265.51029      525.39435     -1.1357537    
  46430000   313.22071      0              241.09414      518.38862      1.5950588    
  46440000   296.96347      0              250.11391      513.01584      0.038291093  
  46450000   289.58338      0              252.96451      509.33284     -1.3994157    
  46460000   330.55748      0              272.84005      565.48278     -1.6898598    
  46470000   294.98818      0              284.41242      545.56563     -0.017803145  
  46480000   297.283        0              245.06547      508.25029      0.33805626   
  46490000   285.71846      0              255.62197      508.56869      1.1159616    
  46500000   289.87098      0              270.61907      527.24201     -0.61441645   
  46510000   285.92453      0              254.54895      507.6781       0.34458443   
  46520000   312.19447      0              246.43295      522.8189      -0.36455519   
  46530000   307.46654      0              248.87071      521.07101      1.6115106    
  46540000   297.53411      0              257.1919       520.59903     -0.13622692   
  46550000   295.48061      0              261.44528      523.03444     -0.25771082   
  46560000   294.57466      0              264.56435      525.35147     -1.3635955    
  46570000   305.15305      0              270.47838      540.63056     -1.061203     
  46580000   303.46553      0              269.32387      537.98208     -1.2066784    
  46590000   321.43021      0              242.99164      527.55399     -0.64698651   
  46600000   293.98741      0              255.74438      516.01161      0.68702875   
  46610000   315.45096      0              261.52919      540.7981      -2.4020877    
  46620000   305.18564      0              255.68775      525.86878     -0.25726938   
  46630000   318.56569      0              253.09526      535.12165     -0.090766388  
  46640000   266.92842      0              260.01931      496.3312       1.2740568    
  46650000   288.67762      0              257.89142      513.45788      0.16058605   
  46660000   260.86025      0              266.06891      497.00864      2.5828105    
  46670000   299.36707      0              268.38814      533.41798     -0.1213862    
  46680000   285.00076      0              281.05867      533.37001     -1.5586095    
  46690000   309.6606       0              268.98809      543.1308       1.477901     
  46700000   300.84946      0              275.43629      541.7785      -0.7755615    
  46710000   311.34777      0              260.88602      536.52238     -0.28651439   
  46720000   320.30973      0              253.23261      536.80299     -1.6168944    
  46730000   305.85502      0              277.81554      548.58916      0.65267615   
  46740000   299.41999      0              285.96766      551.04435      0.39375029   
  46750000   322.31374      0              283.17272      568.51727     -0.98465268   
  46760000   315.35181      0              248.13494      527.31608      1.6303795    
  46770000   298.3634       0              261.13058      525.27187     -1.141785     
  46780000   303.78444      0              265.90849      534.84903      0.05668531   
  46790000   321.99376      0              263.57359      548.63485      0.68134556   
  46800000   305.01869      0              230.0508       500.08403     -0.41253789   
  46810000   308.8696       0              264.07883      537.52127     -1.0952135    
  46820000   289.11447      0              277.57255      533.52577      1.8486899    
  46830000   288.77574      0              272.61124      528.26458     -0.13584909   
  46840000   307.92575      0              279.90233      552.50918      0.56143704   
  46850000   312.73769      0              258.84529      535.71215      0.75012245   
  46860000   296.27989      0              255.04024      517.337       -0.82356769   
  46870000   278.12242      0              291.38519      537.60713      0.004453573  
  46880000   297.91542      0              269.46922      533.21391      1.8433765    
  46890000   282.34273      0              241.88602      491.84421      0.61067549   
  46900000   294.37344      0              235.80701      496.41598      0.53902241   
  46910000   293.86575      0              252.00972      512.16923      0.050330054  
  46920000   307.40414      0              274.22862      546.37368     -0.45647246   
  46930000   294.05236      0              264.07589      524.40062     -1.4374212    
  46940000   316.53744      0              275.04113      555.27191     -0.94100332   
  46950000   318.10055      0              259.12122      540.73582      0.5042559    
  46960000   289.18387      0              297.23707      553.25172      0.20492563   
  46970000   285.24352      0              270.3759       522.90215      0.69672567   
  46980000   309.13011      0              258.32136      531.99442      2.0511866    
  46990000   292.07788      0              260.32585      518.90256     -0.94311392   
  47000000   301.25959      0              262.39226      529.09755     -0.25020488   
  47010000   315.61128      0              276.2806       555.69145     -0.5157862    
  47020000   304.54932      0              259.57612      529.19381      0.31149783   
  47030000   328.15384      0              270.59759      561.11238      0.43659251   
  47040000   312.89205      0              277.759        554.76252     -0.46243961   
  47050000   297.97722      0              261.12059      524.92         0.95592629   
  47060000   312.51434      0              259.75822      536.42735      2.0522555    
  47070000   254.74187      0              268.59978      494.12291      0.71222836   
  47080000   318.09557      0              239.71487      521.32506     -0.84574929   
  47090000   292.47459      0              251.89812      510.82604     -0.29744129   
  47100000   308.34131      0              250.88769      523.86243      1.0838868    
  47110000   315.62699      0              287.7758       567.20056      1.7358718    
  47120000   290.69684      0              275.37529      532.72936      1.1299504    
  47130000   299.06283      0              275.84631      540.60681      0.144948     
  47140000   288.1317       0              270.80309      525.88625      0.97463672   
  47150000   282.54499      0              240.77175      490.909       -0.51221052   
  47160000   294.18571      0              274.19182      534.6346       0.40430494   
  47170000   281.23369      0              259.98895      508.9653      -0.64284253   
  47180000   306.2164       0              282.69413      553.78768     -0.56658827   
  47190000   312.55618      0              282.9294       559.63556      0.0047096312 
  47200000   316.946        0              272.02665      552.61913     -0.28083005   
  47210000   296.92315      0              268.06421      530.93045      0.65215858   
  47220000   314.75095      0              257.29496      535.94416      1.1195406    
  47230000   303.8791       0              250.99421      520.01856     -1.4959697    
  47240000   287.89604      0              279.7759       534.65043     -0.21394847   
  47250000   310.91226      0              258.8741       534.1249       0.077491977  
  47260000   303.34694      0              247.66432      516.21754      0.4625361    
  47270000   285.18945      0              266.91393      519.39232      1.3403338    
  47280000   285.07092      0              269.24909      521.62254     -0.45312992   
  47290000   309.29372      0              249.40052      523.21843     -0.39114825   
  47300000   312.5313       0              253.91439      530.59853     -1.6789114    
  47310000   304.00558      0              250.02353      519.15985      0.53543955   
  47320000   296.53835      0              255.80757      518.33315      1.2655622    
  47330000   319.2938       0              258.5902       541.26119      0.060149522  
  47340000   287.11468      0              257.96168      512.14447      0.51125669   
  47350000   290.25536      0              276.50685      533.47009     -1.0286353    
  47360000   276.41866      0              267.36098      512.07458      1.6372789    
  47370000   284.94799      0              259.81367      512.0783      -0.097850758  
  47380000   310.70579      0              290.02147      565.08949      0.74377128   
  47390000   293.36817      0              293.99526      553.71428     -0.2278495    
  47400000   306.57996      0              266.3974       537.81282     -0.20172708   
  47410000   289.60567      0              265.28236      521.67043      0.7159587    
  47420000   305.05417      0              257.397        527.46164     -0.5502009    
  47430000   309.57191      0              283.64864      557.71283      1.4146625    
  47440000   300.25133      0              283.12788      548.94056      0.074808457  
  47450000   289.68309      0              265.38401      521.84062      0.79978844   
  47460000   307.59112      0              264.67664      536.98723      0.85557767   
  47470000   312.45474      0              253.61531      530.23167     -0.013856313  
  47480000   295.24991      0              265.58608      526.971       -0.094645928  
  47490000   310.48096      0              276.30842      551.1774       0.39226083   
  47500000   294.47355      0              262.24592      522.94353      1.1942594    
  47510000   307.15713      0              262.90236      534.82875      1.1979332    
  47520000   270.29137      0              260.00007      499.28918     -1.3491266    
  47530000   280.72066      0              253.26123      501.7834      -1.2732584    
  47540000   297.98841      0              263.16765      526.97696     -1.1136333    
  47550000   295.12062      0              251.61907      512.88952      0.20093389   
  47560000   294.30188      0              254.4121       514.95773     -0.36375821   
  47570000   291.3443       0              293.87657      551.80384     -0.79197885   
  47580000   315.94468      0              259.32068      539.02669      1.5391538    
  47590000   294.18863      0              256.8576       517.30297      0.84069292   
  47600000   295.70063      0              249.42652      511.21046     -1.2084263    
  47610000   308.85009      0              273.4567       546.88187      1.6021193    
  47620000   291.31472      0              278.88491      536.786       -1.4381161    
  47630000   307.70217      0              259.89559      532.3045      -0.0081289276 
  47640000   277.97081      0              258.38295      504.47067     -0.95413389   
  47650000   301.55337      0              260.56017      527.52555     -1.3616229    
  47660000   294.42465      0              249.82228      510.4766       0.33643833   
  47670000   293.63416      0              249.92108      509.87557     -0.79299147   
  47680000   308.61912      0              259.92365      533.14434     -0.092626751  
  47690000   290.80151      0              241.97829      499.42504     -0.25353697   
  47700000   278.92406      0              266.08629      513.01792      0.046541798  
  47710000   315.63638      0              249.67786      529.11094      0.26810157   
  47720000   334.02916      0              274.79358      570.50979     -0.49113478   
  47730000   302.79725      0              260.48569      528.55227      0.4996302    
  47740000   305.98804      0              270.66689      541.55829     -1.0028606    
  47750000   278.52753      0              255.77045      502.35103      0.21115549   
  47760000   273.44339      0              251.04358      493.12318     -0.65762983   
  47770000   281.4597       0              275.90896      525.08539      0.1105495    
  47780000   300.43131      0              265.44061      531.41262     -0.29603199   
  47790000   275.09988      0              280.10608      523.65217     -1.6709645    
  47800000   282.14787      0              283.94747      533.73315     -1.3617447    
  47810000   315.28188      0              268.90838      548.02762     -0.59006131   
  47820000   271.78949      0              245.77604      486.39143     -0.21412348   
  47830000   286.24233      0              250.99338      504.40389     -1.0503694    
  47840000   286.62255      0              253.1913       506.93841     -1.1496923    
  47850000   287.79546      0              271.28212      526.06761      0.73071619   
  47860000   298.54993      0              254.91941      519.22584     -1.1019347    
  47870000   290.81627      0              264.01047      521.47028      0.15612391   
  47880000   313.09077      0              262.53391      539.71336      0.41315741   
  47890000   290.9399       0              232.80996      490.37923      0.26726016   
  47900000   279.15687      0              268.38204      515.51978     -0.005060477  
  47910000   295.46752      0              261.19406      522.77163      1.2372196    
  47920000   288.90386      0              279.59083      535.35759     -0.31247386   
  47930000   299.46111      0              284.11515      549.22825     -0.66715606   
  47940000   333.80945      0              261.27218      556.79389     -1.810848     
  47950000   296.97069      0              273.44942      536.35774     -0.43226949   
  47960000   304.00589      0              279.18909      548.32569      0.23672924   
  47970000   317.77585      0              253.12692      534.45407     -1.4697811    
  47980000   281.53363      0              270.10994      519.35183      0.688735     
  47990000   310.42735      0              266.12438      540.94589      0.17549036   
  48000000   284.66913      0              269.86535      521.8831       1.3457264    
  48010000   307.46861      0              245.99287      518.19501     -1.0987198    
  48020000   299.69851      0              234.33312      499.65638      0.76771473   
  48030000   311.55428      0              260.17717      535.99635      0.57032375   
  48040000   306.27319      0              256.54202      527.68586     -0.1269042    
  48050000   314.29629      0              282.07828      560.32497     -0.87691174   
  48060000   289.1915       0              262.24443      518.26583     -0.22031154   
  48070000   308.86479      0              259.14901      532.58719      0.54402455   
  48080000   287.54608      0              288.96076      543.52547     -1.0410586    
  48090000   293.17635      0              267.93734      527.48654      0.42551856   
  48100000   293.36188      0              263.99099      523.70443      0.37111945   
  48110000   299.03301      0              256.16912      520.90322     -0.65478695   
  48120000   297.62333      0              263.90159      527.3877       0.49428417   
  48130000   304.60011      0              250.51799      520.18064      0.45396484   
  48140000   289.56393      0              261.19768      517.5488       0.43376299   
  48150000   301.0217       0              261.04229      527.53698      0.98772948   
  48160000   290.45117      0              254.11126      511.24785     -1.1949899    
  48170000   305.07711      0              263.02803      533.11298      0.65655168   
  48180000   292.76913      0              239.85376      499.04244      0.19824365   
  48190000   291.15127      0              261.89471      519.6511      -1.5282289    
  48200000   307.64492      0              255.10707      527.46529      2.4564359    
  48210000   310.51103      0              263.30692      538.20252      2.5975451    
  48220000   294.22492      0              256.45433      516.93182      0.9565544    
  48230000   304.52492      0              268.42999      538.02608     -0.91587364   
  48240000   338.8079       0              289.83976      589.78659      0.52943751   
  48250000   318.84035      0              261.52688      543.79643      1.6004552    
  48260000   292.34767      0              267.46296      526.27852      0.5994315    
  48270000   326.17134      0              259.12854      547.88822      2.077045     
  48280000   287.92467      0              230.21226      485.11214      0.34318987   
  48290000   278.01109      0              262.20729      508.33066     -0.68404136   
  48300000   301.81067      0              264.67388      531.86705     -1.3600171    
  48310000   313.35246      0              295.62361      573.03473      0.60529256   
  48320000   292.89717      0              260.29929      519.60133      0.32305628   
  48330000   313.10903      0              263.67165      540.86725     -0.38245385   
  48340000   299.05456      0              247.1155       511.86867     -0.74834092   
  48350000   291.29132      0              263.87418      521.75456      0.53207451   
  48360000   297.58415      0              262.63237      526.08379     -0.56537202   
  48370000   296.46797      0              280.20204      542.66531      0.3997522    
  48380000   291.23315      0              264.04527      521.87415      0.40198889   
  48390000   297.82107      0              270.02179      533.68296     -0.39100945   
  48400000   294.95103      0              275.24281      536.36313     -1.5230698    
  48410000   303.3881       0              266.54194      535.1316       1.0358932    
  48420000   301.09094      0              264.87875      531.43474      1.4802859    
  48430000   296.28372      0              270.82177      533.12192      1.2116513    
  48440000   302.76068      0              262.76806      530.80227      0.39888503   
  48450000   292.2556       0              257.61245      516.3465      -0.20967952   
  48460000   288.49125      0              250.86819      506.26965      0.50148356   
  48470000   299.72715      0              288.77617      554.12479      1.2815971    
  48480000   304.51506      0              244.88883      514.47619     -1.2960829    
  48490000   305.57631      0              292.80677      563.33365     -2.0630715    
  48500000   305.8194       0              286.64317      557.38526     -0.14339228   
  48510000   300.60634      0              256.77378      522.90075      1.514445     
  48520000   303.35188      0              263.46812      532.02572     -0.7774149    
  48530000   284.03029      0              269.99933      521.45151      0.67597075   
  48540000   263.12131      0              296.94861      529.89006     -0.27529808   
  48550000   297.61734      0              256.30303      519.78383      0.38776825   
  48560000   303.7282       0              247.95794      516.84869      0.0075894921 
  48570000   264.7934       0              259.24446      493.66621     -0.41437823   
  48580000   308.65323      0              278.11635      551.36723      0.42879958   
  48590000   308.1477       0              267.94465      540.74799      0.28784507   
  48600000   303.84323      0              294.17277      563.16536     -0.91214117   
  48610000   323.31721      0              251.09732      537.33024      1.2254695    
  48620000   291.7827       0              255.63924      513.95463      1.0814044    
  48630000   312.97528      0              264.9243       542.0015      -0.11135741   
  48640000   292.0528       0              273.85019      532.40471      0.22201627   
  48650000   287.42977      0              274.76075      529.2225       0.26584409   
  48660000   271.39118      0              263.4827       503.74547      0.22383924   
  48670000   294.79007      0              276.52188      537.49971      0.41973869   
  48680000   289.78279      0              259.26526      515.81013      1.123044     
  48690000   309.2186       0              254.04969      527.80109     -0.054712761  
  48700000   304.10709      0              273.19306      542.41925     -1.7655404    
  48710000   300.12616      0              242.95107      508.65294     -0.57777772   
  48720000   323.85981      0              249.711        536.42428      0.018324592  
  48730000   290.89455      0              246.3096       503.83872     -0.1362353    
  48740000   306.2181       0              255.65612      526.75118     -0.15088972   
  48750000   293.65798      0              251.60225      511.57784     -1.236736     
  48760000   308.18796      0              253.85169      526.69067     -0.74328909   
  48770000   319.31662      0              276.94961      559.64081     -0.43344102   
  48780000   313.63089      0              238.55351      516.21112      1.1762611    
  48790000   287.54441      0              264.45285      519.01608     -0.7660502    
  48800000   308.49056      0              250.73167      523.83855     -0.39168477   
  48810000   286.10629      0              279.88806      533.17813      0.19934583   
  48820000   314.46143      0              280.83223      559.22511     -0.19160749   
  48830000   290.7818       0              279.5854       537.0147      -1.5940255    
  48840000   278.95061      0              277.24078      524.19592      0.72332566   
  48850000   300.10952      0              267.20587      532.89301     -0.79100227   
  48860000   332.57783      0              249.98554      544.41688     -0.48828258   
  48870000   273.6141       0              253.98531      496.21603      1.0469409    
  48880000   307.57981      0              275.45552      547.7561       1.0785932    
  48890000   294.46867      0              272.67944      533.37273     -1.7324967    
  48900000   296.53412      0              263.88199      526.40382      0.17394126   
  48910000   306.2468       0              280.47387      551.59434      0.21402427   
  48920000   281.87512      0              261.36432      510.90854      1.405087     
  48930000   292.31321      0              256.38766      515.17272     -0.28828017   
  48940000   325.58273      0              284.918        573.15659     -0.729637     
  48950000   306.59408      0              251.31334      522.74126      1.1331854    
  48960000   316.24317      0              271.34143      551.3117      -2.1491132    
  48970000   314.02166      0              276.14385      554.14741     -0.33771235   
  48980000   297.51186      0              263.11889      526.50632     -0.63128294   
  48990000   277.18454      0              273.40179      518.79343     -0.67075179   
  49000000   326.33138      0              258.79704      547.6984      -1.6223242    
  49010000   273.27683      0              270.47395      512.40609      0.33597145   
  49020000   305.98376      0              250.34069      521.22829      1.4815967    
  49030000   287.5206       0              241.77351      496.31567      1.3379732    
  49040000   305.00317      0              242.00365      512.02314      1.4125981    
  49050000   314.65161      0              260.37113      538.93239     -0.17614388   
  49060000   285.11897      0              251.62675      504.04274      1.2556681    
  49070000   330.69309      0              254.76075      547.52354      0.66343635   
  49080000   313.40265      0              254.52478      531.98033      0.083635188  
  49090000   293.85527      0              279.29563      539.44588      1.1917315    
  49100000   294.55826      0              263.15319      523.9258       0.52566071   
  49110000   291.65921      0              245.05719      503.26325     -0.92446024   
  49120000   320.69577      0              267.6607       551.57286      0.64948812   
  49130000   281.51495      0              255.23747      504.46282     -0.16734119   
  49140000   291.2237       0              259.12577      516.94628     -0.27484987   
  49150000   287.36711      0              259.64633      514.0526      -0.19095794   
  49160000   281.56221      0              274.23679      523.50397     -0.49560779   
  49170000   300.57018      0              268.48334      534.5783       0.31987964   
  49180000   312.80794      0              251.47407      528.40313     -0.21077756   
  49190000   286.262        0              274.41641      527.84432      2.4595774    
  49200000   298.16816      0              250.61489      514.58333      0.88979706   
  49210000   305.19055      0              266.59641      536.78179     -2.4140929    
  49220000   308.46024      0              271.09778      544.17782     -1.6670397    
  49230000   303.02258      0              270.83106      539.09713     -0.36887578   
  49240000   307.48684      0              263.15792      535.3762      -0.31431075   
  49250000   314.81559      0              278.86046      557.56689      1.4179719    
  49260000   326.1786       0              271.07014      559.83625     -1.0270338    
  49270000   275.7625       0              285.41646      529.54916      0.63373233   
  49280000   342.94227      0              253.98306      557.59006     -1.2968844    
  49290000   275.06961      0              268.94619      512.46547     -0.01120686   
  49300000   303.12226      0              257.80506      526.15937     -0.41068538   
  49310000   270.97371      0              279.40321      519.2964       0.40123317   
  49320000   291.5632       0              265.11112      523.2322       0.061623744  
  49330000   287.20769      0              257.38836      511.65349      0.28911021   
  49340000   327.4908       0              256.78572      546.71352     -0.57055596   
  49350000   343.35158      0              242.87685      546.8462       1.1848923    
  49360000   314.8836       0              235.47703      514.24367     -3.4359382    
  49370000   329.35928      0              265.29592      556.87788     -0.14244009   
  49380000   309.15125      0              278.44746      552.13925      1.4215448    
  49390000   302.09631      0              278.38883      545.83486     -0.40664842   
  49400000   297.67529      0              269.35177      532.88388      0.70753701   
  49410000   299.15652      0              244.7015       509.54495     -2.1799628    
  49420000   296.25171      0              248.33794      510.60975     -0.77404691   
  49430000   314.36621      0              262.17923      540.48783     -1.524767     
  49440000   310.15335      0              251.09557      525.67452      1.3810374    
  49450000   325.79329      0              256.91827      545.34326     -0.92655903   
  49460000   311.39286      0              259.63631      535.31259     -1.7485219    
  49470000   293.90595      0              261.70897      521.90408     -0.43051968   
  49480000   294.92214      0              235.45475      496.54949     -2.4246797    
  49490000   275.55428      0              258.84088      502.78925      0.43477517   
  49500000   304.32961      0              260.6018       530.02499      0.50769271   
  49510000   293.40119      0              263.09517      522.84341      0.71154623   
  49520000   311.99114      0              261.35799      537.56393     -0.80398873   
  49530000   311.96274      0              267.54603      543.72683     -0.83235216   
  49540000   305.8783       0              247.95536      518.74961     -1.1271429    
  49550000   289.37389      0              247.97371      504.15659     -0.35286198   
  49560000   300.10081      0              274.20498      539.8844      -0.31299441   
  49570000   318.0024       0              264.68712      546.21483      1.6528332    
  49580000   317.41744      0              271.68567      552.69552     -2.4330317    
  49590000   304.44945      0              239.15213      508.68141      1.1978244    
  49600000   287.74898      0              277.03963      531.78398      0.62649638   
  49610000   285.71917      0              253.93573      506.88308      0.37384027   
  49620000   310.59381      0              258.532        533.50088     -0.40544861   
  49630000   290.82633      0              246.07546      503.54419      0.67434221   
  49640000   335.86374      0              274.776        572.11636     -1.4369325    
  49650000   301.25244      0              257.43282      524.13179     -0.20977969   
  49660000   271.55938      0              277.97862      518.3903      -1.4290907    
  49670000   309.10048      0              278.08324      551.73008     -0.6882392    
  49680000   288.09376      0              278.07161      533.12118     -0.83349257   
  49690000   316.36944      0              264.03662      544.11866      0.65927249   
  49700000   325.58524      0              256.78577      545.02657      1.5717832    
  49710000   296.40927      0              255.06333      517.47463      0.43314758   
  49720000   289.4701       0              265.22512      521.49317      0.73375992   
  49730000   318.65431      0              275.1695       557.27435     -1.0835641    
  49740000   277.57403      0              276.29482      522.03127     -1.6287528    
  49750000   277.56942      0              293.89286      539.62522      0.19833531   
  49760000   294.19722      0              261.73884      522.19181      0.2482181    
  49770000   300.70738      0              245.59594      511.81237     -0.38023811   
  49780000   303.84408      0              261.99861      530.99194      0.91400633   
  49790000   322.87639      0              291.36569      577.20835      0.85154993   
  49800000   295.27375      0              249.00114      510.40716      0.98191819   
  49810000   317.81529      0              258.85807      540.22013      2.6915172    
  49820000   300.22959      0              263.9436       529.73703     -0.57101743   
  49830000   296.79902      0              255.75256      518.5089      -1.189049     
  49840000   304.65682      0              273.48637      543.19923      0.38135312   
  49850000   283.64314      0              254.629        505.73843     -0.51796593   
  49860000   285.29959      0              261.7474       514.32329     -2.0213461    
  49870000   293.46943      0              252.72501      512.53367     -1.4240028    
  49880000   303.08303      0              268.63501      536.95459     -1.1796107    
  49890000   286.8          0              288.75375      542.65796      0.28368822   
  49900000   306.91691      0              259.77837      531.49209      1.1429062    
  49910000   289.12936      0              275.57786      531.54425      0.49276223   
  49920000   310.30122      0              259.32383      534.03369     -1.1704048    
  49930000   285.12334      0              259.37663      511.79649      1.5966649    
  49940000   288.83682      0              286.78123      542.48864      0.0046204099 
  49950000   301.565        0              241.07897      508.05465      0.18619413   
  49960000   312.09651      0              297.2118       573.51103      0.39779806   
  49970000   287.10584      0              247.64646      501.82143     -1.6555228    
  49980000   290.00566      0              262.39652      519.1387       0.46609519   
  49990000   305.45691      0              265.66692      536.08809      0.73413947   
  50000000   305.17445      0              257.80986      527.98098     -0.3952266    
  50010000   302.97388      0              251.98519      520.20815      0.80331817   
  50020000   290.07968      0              248.84429      505.652       -2.7880533    
  50030000   337.24713      0              267.63207      566.19716     -0.39691379   
  50040000   295.56981      0              269.84739      531.51551      0.92625322   
  50050000   315.80829      0              280.14425      559.72951     -0.45310086   
  50060000   331.58951      0              277.81463      571.37102      0.22896417   
  50070000   303.92085      0              267.84933      536.91064     -0.8862736    
  50080000   274.16239      0              264.82749      507.54362      0.44987795   
  50090000   267.82668      0              253.45303      490.56015     -0.74368295   
  50100000   308.72028      0              282.81592      556.12616     -0.032442345  
  50110000   280.81753      0              270.12971      518.73764      0.19869674   
  50120000   298.87127      0              255.31347      519.90438      0.16343423   
  50130000   269.91093      0              276.69729      515.6496       0.1790876    
  50140000   299.95213      0              260.2994       525.84719     -1.0047237    
  50150000   314.94106      0              263.04995      541.86745     -1.6178025    
  50160000   310.85119      0              262.55454      537.75127     -0.51424349   
  50170000   305.3073       0              246.05816      516.3469      -0.24434625   
  50180000   267.49695      0              286.27029      523.08549     -1.647826     
  50190000   304.74167      0              296.18846      565.97644      1.3820549    
  50200000   286.23705      0              260.82759      514.23342      0.82894392   
  50210000   304.27078      0              255.96133      525.33243      0.37481636   
  50220000   300.53998      0              264.71474      530.78296      2.3795499    
  50230000   307.11695      0              256.00864      527.89946      0.65973903   
  50240000   317.77134      0              249.47076      530.79391      0.7780577    
  50250000   317.00856      0              260.19648      540.84434      0.1911236    
  50260000   327.78148      0              267.2298       557.41494     -0.23622382   
  50270000   320.19803      0              283.05744      566.52894      0.67466567   
  50280000   320.65774      0              246.04264      529.92112     -0.33321924   
  50290000   302.33594      0              262.09789      529.75607      0.25285315   
  50300000   328.76764      0              251.79278      542.85096      1.1163318    
  50310000   312.2982       0              256.28887      532.76665     -1.1803832    
  50320000   285.94891      0              248.7586       501.90934      1.9796876    
  50330000   328.38417      0              251.30673      542.02543      0.37855262   
  50340000   270.02161      0              270.94702      509.9973       0.82304128   
  50350000   308.48543      0              259.62307      532.7254       0.60373106   
  50360000   291.8657       0              270.24425      528.63313     -0.8412097    
  50370000   302.63379      0              263.18663      531.1085      -2.7285091    
  50380000   313.76122      0              270.95994      548.73293     -0.62229099   
  50390000   317.33438      0              270.54749      551.4838       0.34011149   
  50400000   305.27742      0              244.32311      514.58539      0.43612759   
  50410000   298.2409       0              266.70872      530.74157      0.57882279   
  50420000   301.21491      0              264.62386      531.28959      1.2489983    
  50430000   306.0379       0              269.48186      540.41739     -1.5386287    
  50440000   304.57617      0              268.42974      538.0712       2.477665     
  50450000   295.06353      0              245.67779      506.89771      0.44885504   
  50460000   297.66386      0              252.86341      516.38539     -0.12764223   
  50470000   306.88581      0              275.33173      547.01792     -1.392094     
  50480000   319.37908      0              271.11369      553.86017      1.3653355    
  50490000   302.35573      0              288.90329      556.57899     -1.7501927    
  50500000   285.01664      0              254.63324      506.95864     -0.42582967   
  50510000   323.70298      0              269.50761      556.08205      0.53491085   
  50520000   272.26204      0              248.65645      489.6902       0.16997209   
  50530000   294.85751      0              273.23791      534.27543      0.23345662   
  50540000   301.53268      0              258.39665      525.34372     -1.3141617    
  50550000   315.51099      0              275.15384      554.4759       0.5956514    
  50560000   317.84742      0              273.86057      555.25107      1.9965546    
  50570000   303.99016      0              248.53597      517.65864      0.21544436   
  50580000   314.34844      0              233.11284      511.40569     -1.3569919    
  50590000   302.73388      0              258.52711      526.53759      0.37779429   
  50600000   304.87617      0              257.88481      527.79186      1.3576069    
  50610000   287.32443      0              265.9889       520.35739      1.448454     
  50620000   307.94056      0              251.19098      523.81094      2.3381113    
  50630000   286.84325      0              261.69781      515.6403       0.51718418   
  50640000   301.81032      0              261.65266      528.84551     -0.73671661   
  50650000   310.6525       0              244.89996      519.9208      -0.6845888    
  50660000   284.28632      0              297.81447      549.49332     -0.28729233   
  50670000   291.58935      0              260.62688      518.7711      -1.1340371    
  50680000   283.51192      0              262.60899      513.60225      1.6458696    
  50690000   272.45307      0              254.22405      495.42692     -0.889912     
  50700000   298.28134      0              267.88905      531.9577      -0.083835317  
  50710000   283.07884      0              258.53561      509.14547     -0.42442537   
  50720000   270.83089      0              276.05874      515.82549     -0.73168301   
  50730000   350.64571      0              235.29561      545.72246     -0.026947774  
  50740000   278.37074      0              289.34123      535.78301      0.28366753   
  50750000   316.49522      0              281.72251      561.91592      0.64252241   
  50760000   291.87384      0              282.83075      541.22683      0.33984047   
  50770000   286.44731      0              267.36713      520.9591       0.23565479   
  50780000   300.70699      0              244.46317      510.67924     -0.37367907   
  50790000   297.48052      0              257.88536      521.24504      1.0276616    
  50800000   287.78295      0              258.50372      513.27814      0.86082685   
  50810000   304.92911      0              261.70094      531.65486     -1.2815731    
  50820000   303.38176      0              272.76803      541.35208     -0.23879589   
  50830000   314.21215      0              281.60737      559.77957     -0.83258407   
  50840000   278.93426      0              275.27938      522.22005     -1.0251941    
  50850000   314.08173      0              275.17706      553.2338      -0.66246843   
  50860000   282.67917      0              249.59221      499.84824      0.58537408   
  50870000   283.62656      0              272.81305      523.90781      0.52324225   
  50880000   296.95232      0              277.53782      540.42988     -0.15822972   
  50890000   307.75963      0              276.2995       548.75928     -1.8721647    
  50900000   297.9143       0              276.66173      540.40543      0.75153147   
  50910000   316.20596      0              277.44313      557.38045     -0.20668738   
  50920000   309.05087      0              271.41973      545.02264      0.3809823    
  50930000   311.49594      0              264.02043      539.78797      0.68383417   
  50940000   293.54707      0              272.91998      532.79737      0.27842681   
  50950000   331.57875      0              271.43424      564.9811      -0.69657996   
  50960000   300.75693      0              257.32754      523.58783     -0.60964825   
  50970000   318.3889       0              262.11708      543.98695     -0.94406619   
  50980000   322.23483      0              267.41985      552.69454     -0.53761657   
  50990000   299.29455      0              260.63804      525.60368     -0.059956723  
  51000000   298.33248      0              255.8964       520.01031      0.80412114   
  51010000   300.68945      0              257.16891      523.36946     -0.098457345  
  51020000   298.60869      0              261.20747      525.56592      0.77462043   
  51030000   284.15881      0              283.96998      535.53594      0.43983117   
  51040000   325.75065      0              295.90972      584.29696     -1.825824     
  51050000   302.70185      0              292.64945      560.63158     -0.31830303   
  51060000   277.59099      0              277.70929      523.46075      1.2453569    
  51070000   330.33679      0              273.11031      565.55766      0.22121499   
  51080000   293.42761      0              257.98797      517.7596       0.32292646   
  51090000   288.02343      0              283.44778      538.43509      0.060892902  
  51100000   325.45091      0              272.50526      560.62714      0.8272636    
  51110000   284.41787      0              260.21259      512.0079      -0.57018654   
  51120000   338.22077      0              259.66427      559.09131     -0.48759495   
  51130000   294.17183      0              257.59381      518.02431      0.71545592   
  51140000   318.77482      0              251.09456      533.3061      -0.78829422   
  51150000   274.45208      0              251.29267      494.26525     -1.1119241    
  51160000   289.68009      0              228.60102      485.05497     -0.011755333  
  51170000   303.34384      0              236.76363      505.3141      -0.68221061   
  51180000   321.66457      0              244.955        529.72483      1.4378662    
  51190000   294.42101      0              256.43045      517.08154     -0.45933344   
  51200000   322.84547      0              282.73958      568.55486     -0.27094975   
  51210000   309.92138      0              221.05069      495.42427      0.72585737   
  51220000   295.99877      0              264.87561      526.92349     -0.79378882   
  51230000   310.43213      0              270.73088      545.55663      1.3693391    
  51240000   320.99156      0              244.23312      528.40713      1.4085042    
  51250000   321.0293       0              292.518        576.72543      0.67987366   
  51260000   310.60184      0              248.82278      523.79876     -1.5659203    
  51270000   292.77547      0              239.72159      498.91588     -0.40697026   
  51280000   283.78162      0              274.108        525.34003     -0.72137442   
  51290000   325.8859       0              268.19369      556.70066     -0.69928991   
  51300000   310.19108      0              256.35475      530.96709      1.1346144    
  51310000   299.47861      0              244.96101      510.0896       2.1488172    
  51320000   294.61076      0              269.02827      529.84735     -0.40127509   
  51330000   325.07608      0              281.39879      569.18883     -0.21808818   
  51340000   320.72125      0              241.52283      525.45754     -1.6869882    
  51350000   299.7596       0              261.61979      526.99715     -1.4025423    
  51360000   309.47737      0              259.63757      533.61807      0.92300279   
  51370000   295.59712      0              254.45779      516.15009     -0.29221971   
  51380000   309.96949      0              219.46029      493.87646      0.22024575   
  51390000   302.89834      0              252.54558      520.70166      0.49981362   
  51400000   285.06199      0              253.08606      505.45161      0.16575707   
  51410000   291.01953      0              260.6114       518.25116      1.2639185    
  51420000   312.52699      0              258.77402      535.45435     -1.1096212    
  51430000   302.97084      0              263.40824      531.6285       0.96311788   
  51440000   300.83059      0              253.39265      519.71815     -1.0093488    
  51450000   288.15356      0              275.99711      531.09963     -0.68678641   
  51460000   286.3798       0              247.37837      500.91057     -0.83537885   
  51470000   275.89974      0              279.07453      523.32873      0.93995631   
  51480000   308.13095      0              272.37295      545.16146     -0.97017786   
  51490000   308.78171      0              258.92189      532.28652      0.33941007   
  51500000   280.31099      0              255.07407      503.23355     -0.33056114   
  51510000   309.0453       0              275.01412      548.61211      1.4150916    
  51520000   313.27438      0              235.96974      513.31173      0.814714     
  51530000   304.08637      0              261.00431      530.21215      1.0081748    
  51540000   298.27738      0              265.94318      530.00832     -2.6666279    
  51550000   319.63575      0              284.50099      567.4747       0.89246228   
  51560000   290.1659       0              240.07037      496.95442     -0.64444099   
  51570000   293.36123      0              243.91588      503.62875     -1.8419625    
  51580000   292.19102      0              292.33324      551.01012     -1.4052782    
  51590000   289.26921      0              251.58703      507.67723     -0.39901557   
  51600000   299.93744      0              264.44062      529.97541      0.087127329  
  51610000   301.72479      0              255.42385      522.54098      0.86599779   
  51620000   319.25586      0              256.1697       538.8071       1.1140885    
  51630000   307.03169      0              274.65382      546.46915     -0.37908866   
  51640000   291.52026      0              260.93339      519.01645     -0.57872222   
  51650000   304.21741      0              267.33272      536.65658      0.70429229   
  51660000   312.62498      0              259.63339      536.40046     -0.15374526   
  51670000   314.92777      0              261.44856      540.2543      -1.4821936    
  51680000   292.13425      0              241.67795      500.30457      0.52742924   
  51690000   313.60377      0              265.90228      543.53588      0.047979165  
  51700000   282.3606       0              266.37213      516.34613     -1.0280246    
  51710000   315.05875      0              253.29401      532.2157       0.74936283   
  51720000   301.72551      0              248.16514      515.28291      0.9398429    
  51730000   307.5645       0              264.73904      537.02607     -1.8593544    
  51740000   295.04695      0              264.89454      526.09978      0.020339573  
  51750000   307.41587      0              251.11043      523.26588      0.31335034   
  51760000   308.48239      0              258.47085      531.57049      0.76824551   
  51770000   303.25274      0              270.07296      538.54279     -0.18611956   
  51780000   291.70773      0              296.10233      554.35135     -0.71195686   
  51790000   293.96976      0              280.88562      541.13722      0.56689546   
  51800000   293.8774       0              267.77885      527.94868      1.4642252    
  51810000   320.95607      0              272.03142      556.17401     -0.60375961   
  51820000   278.71085      0              239.17041      485.91329     -1.4096057    
  51830000   325.45374      0              267.98767      556.11205      0.32137382   
  51840000   279.64322      0              272.04342      519.61172      0.61778283   
  51850000   312.96113      0              273.7349       550.79957      0.64705468   
  51860000   271.1474       0              249.74194      489.78889     -0.96760858   
  51870000   292.75638      0              274.15645      533.33384      0.0046979777 
  51880000   295.10414      0              272.33663      533.5925       1.5884243    
  51890000   315.3704       0              272.7617       551.9593      -0.018038916  
  51900000   312.45438      0              266.35021      542.96626      0.1908878    
  51910000   277.25776      0              274.17537      519.63183      1.4263181    
  51920000   312.14375      0              247.25925      523.60029     -2.4108828    
  51930000   288.8632       0              252.01365      507.74442     -1.7983739    
  51940000   276.04812      0              233.25992      477.64548     -0.12965151   
  51950000   314.93471      0              278.59158      557.40346      1.0531514    
  51960000   279.51232      0              238.49914      485.95157      0.12234958   
  51970000   294.80343      0              261.1088       522.09844     -1.0266447    
  51980000   309.81729      0              282.77065      557.05209      2.7733632    
  51990000   307.31408      0              261.49119      533.55653      0.13287647   
  52000000   311.21146      0              266.76599      542.28167     -0.8419732    
  52010000   319.2432       0              237.38848      520.01467      0.12749158   
  52020000   306.6925       0              286.0698       557.58485     -0.16194276   
  52030000   279.22193      0              278.41578      525.61112      0.086258238  
  52040000   284.70717      0              268.74147      520.7929      -1.3001912    
  52050000   321.20333      0              264.96998      549.33148     -0.38723749   
  52060000   301.67699      0              250.26317      517.33798     -1.8876346    
  52070000   304.78456      0              282.38688      552.21283     -0.46462214   
  52080000   293.52902      0              266.74727      526.60868     -0.16802433   
  52090000   288.71504      0              242.47504      498.07464      0.75477167   
  52100000   326.70291      0              256.48805      545.71833     -1.2195693    
  52110000   299.06698      0              278.36313      543.1273      -0.13318537   
  52120000   308.53796      0              267.61355      540.76239     -0.62781111   
  52130000   312.57707      0              271.0099       547.73456     -0.11294016   
  52140000   279.90187      0              247.3854       495.18269      1.4173773    
  52150000   291.00283      0              263.03544      520.66041     -0.88131322   
  52160000   315.90531      0              259.00753      538.67869     -2.4591196    
  52170000   304.73078      0              265.08519      534.86352     -1.1853287    
  52180000   307.14965      0              268.53492      540.45469      0.58248814   
  52190000   295.94597      0              252.83656      514.8377      -0.62896799   
  52200000   315.33019      0              274.1789       553.3409       0.77141288   
  52210000   323.05138      0              263.53378      549.53135     -0.069023819  
  52220000   290.72008      0              256.64049      514.01515      0.45006204   
  52230000   313.90476      0              242.3113       520.21137      1.7740938    
  52240000   260.79163      0              255.87242      486.75141      1.4913136    
  52250000   287.68866      0              254.87144      509.56238     -0.21060695   
  52260000   286.57645      0              247.42803      501.13433     -0.33203418   
  52270000   298.33821      0              286.73081      550.8498       0.34456936   
  52280000   284.32346      0              277.11291      528.82463     -0.07873528   
  52290000   263.14233      0              272.71922      505.67928     -0.63522579   
  52300000   301.61599      0              263.7807       530.8015      -0.71450205   
  52310000   330.89819      0              247.22092      540.16528     -0.69317799   
  52320000   302.62238      0              257.55119      525.46296      2.3973161    
  52330000   294.27672      0              263.31046      523.83381     -1.1747484    
  52340000   306.11776      0              273.31169      544.31793     -0.60841207   
  52350000   293.25364      0              260.00412      519.62173      1.3636724    
  52360000   287.98543      0              235.23042      490.18409     -0.53561823   
  52370000   341.04184      0              264.02624      565.95078      0.19283313   
  52380000   306.12944      0              254.45178      525.46835      2.0277695    
  52390000   304.1407       0              258.24988      527.50582      0.84904296   
  52400000   315.22196      0              277.02382      556.09         1.2945086    
  52410000   332.72671      0              295.14652      589.70967      0.55765011   
  52420000   313.3074       0              232.25316      509.62439     -0.29315124   
  52430000   305.52989      0              280.051        550.53679      0.37006457   
  52440000   314.16293      0              266.4421       544.57073     -0.66883919   
  52450000   306.7092       0              263.98167      535.51151      1.4925263    
  52460000   298.11891      0              251.81681      515.74165     -0.79720756   
  52470000   276.43401      0              252.95023      497.67742      2.4098743    
  52480000   283.55294      0              273.75424      524.78383     -1.6745744    
  52490000   288.37576      0              262.40118      517.70041      0.90162701   
  52500000   301.85018      0              267.98222      535.21037     -1.3500713    
  52510000   283.63476      0              275.87781      526.97983      1.4163856    
  52520000   310.50111      0              273.04277      547.92958      0.7397911    
  52530000   316.21528      0              280.59801      560.54358     -0.16181269   
  52540000   315.23356      0              259.41724      538.49369     -0.60853819   
  52550000   292.58417      0              264.1888       523.21374     -1.0145111    
  52560000   302.9338       0              264.65055      532.83801      1.1502684    
  52570000   304.87895      0              274.31231      544.22182     -0.96037073   
  52580000   316.7454       0              259.75216      540.16705      0.00031762451
  52590000   286.15284      0              276.7853       530.11658     -0.57161924   
  52600000   306.71795      0              252.00057      523.53815     -0.78976307   
  52610000   300.62935      0              256.48198      522.62932      2.4976598    
  52620000   306.6762       0              267.94973      539.45035     -1.0849931    
  52630000   295.76221      0              277.75529      539.59375     -0.3711802    
  52640000   313.58612      0              266.91416      544.53214      2.4490741    
  52650000   289.3942       0              240.6433       496.84415     -0.40473842   
  52660000   328.0708       0              255.39628      545.83755      0.34452759   
  52670000   296.54925      0              270.43549      532.97071      1.6671866    
  52680000   295.56426      0              259.98653      521.64974      0.65626646   
  52690000   313.6494       0              256.69551      534.36951      0.01268018   
  52700000   306.1108       0              292.81357      563.81364     -0.98493653   
  52710000   337.1779       0              254.09835      552.60214      0.14083359   
  52720000   308.13988      0              278.61745      551.41387      1.0120344    
  52730000   300.75427      0              288.20083      554.45876     -1.3255038    
  52740000   308.08419      0              260.45635      533.20346     -0.58146877   
  52750000   301.61719      0              261.27383      528.2957       0.27638403   
  52760000   317.35751      0              275.44787      556.40466      0.6682108    
  52770000   306.17557      0              277.5254       548.58281      2.0687151    
  52780000   305.42807      0              260.00674      530.40239     -0.8189305    
  52790000   323.0961       0              262.70127      548.73843      0.65361432   
  52800000   309.545        0              275.49808      549.53845      0.14429573   
  52810000   320.01699      0              251.45558      534.76681     -1.0465258    
  52820000   304.15861      0              266.015        535.2868      -0.40412141   
  52830000   282.26552      0              250.94588      500.83571     -1.7862928    
  52840000   315.04761      0              278.14343      557.05526      2.6842866    
  52850000   313.26474      0              252.03137      529.36483     -0.046009428  
  52860000   335.84388      0              265.87267      563.19545      0.33664172   
  52870000   315.43463      0              278.97532      558.22978     -0.7404205    
  52880000   294.08068      0              276.10077      536.45057      0.58660618   
  52890000   299.14099      0              256.61175      521.44144      0.89802836   
  52900000   311.75179      0              249.18598      525.18002      0.81449639   
  52910000   286.24025      0              274.9146       528.32326     -0.41872732   
  52920000   305.30419      0              248.85054      519.13652      0.40778183   
  52930000   291.74024      0              269.10155      527.37935     -1.0620263    
  52940000   327.86872      0              285.39361      575.65598      0.58854713   
  52950000   302.33463      0              269.52159      537.17862      0.7379054    
  52960000   288.80724      0              259.12947      514.81068      0.49785253   
  52970000   290.26816      0              239.47684      496.45141     -0.34405351   
  52980000   296.90009      0              248.31836      511.16418     -0.36488764   
  52990000   308.71569      0              267.6369       540.94308      0.64479772   
  53000000   308.84403      0              267.44051      540.86031     -1.3963449    
  53010000   298.08952      0              259.58442      523.48325      0.62891099   
  53020000   278.2082       0              264.98521      511.28309     -0.29579196   
  53030000   284.1378       0              282.74509      534.29245     -0.22740554   
  53040000   322.77729      0              240.71634      526.47127      0.28274286   
  53050000   294.41427      0              281.19465      541.83978      0.25532112   
  53060000   289.70308      0              257.1067       513.58101      0.32973128   
  53070000   289.87673      0              280.2326       536.86064      0.7161055    
  53080000   299.7372       0              282.2218       547.57931     -0.38773111   
  53090000   283.72051      0              252.2901       503.46803      0.4904797    
  53100000   306.27754      0              263.01171      534.15939     -0.98602752   
  53110000   284.07315      0              261.80966      513.29979      1.4563298    
  53120000   293.53669      0              271.78249      531.65069     -2.0364088    
  53130000   295.42511      0              276.1222       537.66223     -1.7713387    
  53140000   289.32991      0              280.09382      536.23776     -0.79120798   
  53150000   326.77627      0              259.21939      548.51461     -0.75913176   
  53160000   308.35273      0              281.68348      554.66833      0.30772233   
  53170000   299.99828      0              262.49077      528.07942      0.4795621    
  53180000   322.51764      0              277.76272      563.28777     -0.19133641   
  53190000   312.47495      0              266.82644      543.46069      0.73948313   
  53200000   278.75412      0              258.56991      505.35109     -0.77957695   
  53210000   281.91858      0              256.06442      505.6471       0.62841291   
  53220000   310.18974      0              258.56812      533.17928      2.115921     
  53230000   300.56168      0              242.60398      508.69141     -0.95691827   
  53240000   297.63501      0              277.02105      540.5175      -0.4229177    
  53250000   289.9427       0              271.6847       528.37114      1.5138413    
  53260000   301.2163       0              267.6718       534.33877      1.7528841    
  53270000   295.97802      0              271.00659      533.03611     -1.5814541    
  53280000   310.64078      0              235.76369      510.77416     -1.1576876    
  53290000   275.99241      0              247.307        491.64324     -0.96345286   
  53300000   308.27102      0              260.33167      533.24418     -0.49286223   
  53310000   275.62554      0              253.5464       497.55785     -0.54181303   
  53320000   334.427        0              249.53352      545.60194      0.35448214   
  53330000   312.04149      0              252.69443      528.94494     -0.22953628   
  53340000   314.995        0              268.39392      547.25918      0.1754973    
  53350000   308.72594      0              256.72977      530.04503     -0.14052507   
  53360000   324.59028      0              264.15471      551.51468     -0.62566104   
  53370000   294.34295      0              257.2679       517.84988      1.6041744    
  53380000   280.72868      0              272.55264      521.0819      -0.024091797  
  53390000   297.18833      0              251.02983      514.13084      1.9875783    
  53400000   290.40174      0              267.57346      524.66629      0.18772856   
  53410000   306.10774      0              266.60681      537.60417     -0.44107925   
  53420000   315.41331      0              271.71284      550.94843     -0.74504529   
  53430000   294.23859      0              260.36678      520.85637      0.73492455   
  53440000   276.48552      0              255.92782      500.70061     -0.37678789   
  53450000   288.58481      0              271.27092      526.75521     -0.015669752  
  53460000   302.41933      0              271.32973      539.06173     -0.33470279   
  53470000   286.25318      0              252.11368      505.53379      0.99496337   
  53480000   332.22169      0              261.19389      555.30995      0.88569929   
  53490000   299.52673      0              257.17695      522.34814      1.2478999    
  53500000   308.89661      0              285.34624      558.8126       0.94632468   
  53510000   301.99438      0              246.24045      513.59625      1.1332648    
  53520000   309.61859      0              271.46899      545.5745       0.85051215   
  53530000   329.52451      0              260.27769      552.00593      0.87027589   
  53540000   271.61443      0              288.10699      528.56741      0.59462712   
  53550000   311.3477       0              263.50843      539.14473     -0.39508788   
  53560000   307.59114      0              289.1907       561.50132     -0.33943234   
  53570000   308.69928      0              267.51955      540.8112       2.0803644    
  53580000   293.06786      0              266.18471      525.63786     -1.1787558    
  53590000   291.66163      0              255.47071      513.67893      0.86988325   
  53600000   285.11414      0              275.27326      527.68498     -1.0549201    
  53610000   309.56143      0              284.07331      558.12822      0.81879271   
  53620000   315.01494      0              275.80501      554.68792      1.2971712    
  53630000   288.77783      0              272.55519      528.21037     -0.15433351   
  53640000   296.70035      0              284.31193      546.98092      0.65509874   
  53650000   304.49425      0              259.43139      529.00033     -1.4295983    
  53660000   304.68636      0              254.1962       523.93521     -0.3856794    
  53670000   278.38892      0              254.83999      501.29786     -0.81244247   
  53680000   281.38895      0              271.6357       520.74951     -0.075594562  
  53690000   283.00151      0              272.52456      523.06596      0.491548     
  53700000   286.63004      0              255.59707      509.3508       0.0090410477 
  53710000   303.6285       0              235.88724      504.68973      0.2068975    
  53720000   311.22674      0              241.89652      517.42573      0.73276636   
  53730000   277.49256      0              255.16893      500.83326     -0.55361799   
  53740000   322.60751      0              262.26572      547.87034     -0.46491866   
  53750000   280.71508      0              246.80555      495.32278      0.092060437  
  53760000   266.84682      0              263.14438      499.38403     -0.73698841   
  53770000   296.29725      0              263.59049      525.90262     -0.54504545   
  53780000   300.44005      0              280.19507      546.17482      1.2192377    
  53790000   288.17004      0              278.31134      533.42844     -0.95018904   
  53800000   287.06222      0              272.46742      526.60377     -0.34538344   
  53810000   300.21619      0              239.89232      505.67389     -0.65453862   
  53820000   293.29722      0              278.14832      537.80453      0.7328761    
  53830000   310.40523      0              261.17047      535.9724       1.0837621    
  53840000   321.28702      0              260.49148      544.92706      0.59625607   
  53850000   285.43305      0              269.41493      522.10898      0.030778088  
  53860000   314.30579      0              257.14614      535.40124     -1.4167389    
  53870000   300.21466      0              256.26177      522.04198      0.83983118   
  53880000   297.53101      0              259.77796      523.18234      0.22731715   
  53890000   288.20728      0              260.81783      515.9679       1.2177718    
  53900000   300.12201      0              269.73033      535.42852     -0.42627638   
  53910000   304.06994      0              259.78801      528.98131     -0.17315047   
  53920000   275.91957      0              248.52168      492.79344     -0.92091111   
  53930000   309.14352      0              247.20648      520.89143      0.91820628   
  53940000   322.40752      0              252.80735      538.23492     -0.87905307   
  53950000   301.06984      0              258.62354      525.16085      0.12241228   
  53960000   306.35521      0              273.99185      545.2083      -0.095334577  
  53970000   308.33608      0              273.93434      546.90445      0.13388802   
  53980000   315.72133      0              264.64499      544.15327     -0.74675686   
  53990000   317.93695      0              283.67402      565.14379      2.2093048    
  54000000   297.89899      0              263.76961      527.49976     -0.54729094   
  54010000   312.53601      0              271.22458      547.9129       0.17570104   
  54020000   287.34275      0              255.60457      509.98927     -0.34941587   
  54030000   280.72365      0              261.58972      510.11453     -0.74161026   
  54040000   291.44085      0              271.48281      529.49556      0.4942859    
  54050000   299.18193      0              248.35419      513.22013      0.50922138   
  54060000   295.74445      0              273.57465      535.39739     -0.80588902   
  54070000   310.97945      0              272.3563       547.66659      1.1833798    
  54080000   274.12442      0              258.0419       500.72441      0.58347252   
  54090000   288.87733      0              264.61056      520.35383      0.89682186   
  54100000   303.65288      0              247.43988      516.26395      0.15697709   
  54110000   322.55028      0              264.62058      550.17454     -0.18283219   
  54120000   258.33496      0              262.29498      490.99907      0.23267436   
  54130000   326.12059      0              281.95361      570.66837     -0.50744104   
  54140000   316.40032      0              270.7457       550.8551      -2.0587707    
  54150000   313.3239       0              250.20611      527.59194      1.12204      
  54160000   296.50195      0              263.83367      526.32703     -0.86161317   
  54170000   299.9414       0              267.96957      533.50787     -0.59679343   
  54180000   297.34045      0              246.53273      509.7684       0.31074194   
  54190000   278.10256      0              264.59447      510.79882     -1.1065063    
  54200000   296.34         0              262.95498      525.30495     -0.49439379   
  54210000   307.0063       0              263.69539      535.48825      0.36604209   
  54220000   289.87015      0              241.69523      498.31745     -0.67252613   
  54230000   272.16826      0              272.58206      513.53278     -0.6865563    
  54240000   295.5388       0              269.23174      530.87242      0.26651425   
  54250000   314.72824      0              259.2598       537.88889     -0.76587469   
  54260000   286.63483      0              254.46992      508.2279       1.2730284    
  54270000   307.30916      0              259.999        532.05998      0.67866287   
  54280000   296.46349      0              257.04964      519.50894      3.0432102    
  54290000   294.11311      0              276.92455      537.30306     -1.6997316    
  54300000   276.76939      0              274.70765      519.73176      0.36982066   
  54310000   293.29726      0              259.07458      518.73081      1.0101808    
  54320000   284.14675      0              267.88371      519.43899      0.8804825    
  54330000   316.30322      0              265.24478      545.26821     -1.8761204    
  54340000   298.99005      0              283.46764      548.16371      0.088902409  
  54350000   289.47531      0              269.26179      525.53445     -0.79267906   
  54360000   303.35183      0              292.89988      561.45743     -1.3256001    
  54370000   296.69832      0              280.93441      543.60161     -1.5386349    
  54380000   277.4791       0              237.35552      483.00793     -1.5550103    
  54390000   290.46354      0              269.71639      526.86394     -0.028375444  
  54400000   301.61848      0              274.55876      541.58178     -0.65527392   
  54410000   286.8958       0              249.2012       503.19022     -2.0813275    
  54420000   286.36546      0              256.91331      510.43282     -0.22034492   
  54430000   323.16938      0              255.59209      541.69413      0.29120101   
  54440000   277.82718      0              266.75364      512.71421     -1.6072554    
  54450000   274.17681      0              256.88254      499.61142     -0.94953547   
  54460000   316.46923      0              263.14115      543.31155      1.1815298    
  54470000   303.93772      0              249.84333      518.91957     -1.2245635    
  54480000   314.99962      0              252.611        531.48035      0.93356206   
  54490000   298.2394       0              261.88009      525.91161      0.13270622   
  54500000   312.29287      0              274.97985      551.45291     -1.214125     
  54510000   312.96248      0              287.20509      564.27096      0.68081605   
  54520000   307.16083      0              289.69416      561.62383     -0.041376298  
  54530000   310.77302      0              267.47957      542.6071      -0.11725341   
  54540000   284.8901       0              271.80034      524.01371      0.94304826   
  54550000   315.79176      0              250.4641       530.03473     -0.60346871   
  54560000   307.88832      0              250.05495      522.62866      1.4363486    
  54570000   268.64958      0              238.34618      476.18181     -1.1215853    
  54580000   315.13319      0              265.31407      544.30167      1.1859025    
  54590000   289.62478      0              260.49429      516.89928     -0.035982882  
  54600000   299.39079      0              268.03422      533.08506     -0.074237939  
  54610000   301.43243      0              265.50105      532.35935      1.4121045    
  54620000   308.95182      0              276.66543      550.18066     -1.307908     
  54630000   303.08904      0              255.86899      524.19389     -0.59070881   
  54640000   284.2418       0              258.74572      510.38515     -0.79600639   
  54650000   310.24123      0              272.53693      547.19368     -1.7616088    
  54660000   293.95611      0              253.97019      514.2097       0.38954771   
  54670000   291.90842      0              257.29828      515.72497     -0.11618555   
  54680000   307.38952      0              257.43885      529.57097     -0.1150508    
  54690000   290.69849      0              238.9499       496.30545      1.5645039    
  54700000   282.59409      0              285.44981      535.63052     -1.4758445    
  54710000   298.07859      0              266.67822      530.56738     -0.99488335   
  54720000   292.98506      0              239.06391      498.44375      1.0950666    
  54730000   292.05507      0              276.84859      535.40512      1.4599629    
  54740000   261.07833      0              272.06537      503.19817     -1.6232173    
  54750000   294.24137      0              246.3103       506.80236     -0.22841437   
  54760000   300.65484      0              273.46667      539.63657     -0.63533785   
  54770000   292.48957      0              247.91505      506.85624     -1.4264579    
  54780000   288.48426      0              281.72138      537.11666     -0.47950476   
  54790000   311.49596      0              262.81965      538.5872       0.61128273   
  54800000   291.38707      0              260.10959      518.07474     -1.0676173    
  54810000   291.85418      0              288.81154      547.19021      1.7701919    
  54820000   303.31701      0              269.31297      537.83969     -1.7047903    
  54830000   284.48513      0              278.29431      530.14916     -0.038389383  
  54840000   303.7529       0              241.54189      510.45451      0.18099476   
  54850000   277.8705       0              276.15088      522.14979      0.60743432   
  54860000   308.3053       0              277.86855      550.81141      0.33216651   
  54870000   300.51777      0              276.14722      542.19578     -0.060220604  
  54880000   325.53838      0              264.01951      552.21883      1.3198338    
  54890000   313.05671      0              269.66941      546.81869     -0.68125734   
  54900000   298.66511      0              272.86516      537.27356      1.2380838    
  54910000   280.13783      0              255.57681      503.583       -0.2150127    
  54920000   302.09935      0              244.29452      511.74325      0.47196664   
  54930000   312.44451      0              266.11884      542.72615      0.48419395   
  54940000   299.50852      0              275.25019      540.40526      0.68443853   
  54950000   341.54354      0              264.96938      567.33807     -1.003961     
  54960000   287.28176      0              236.23885      490.56956      1.1717106    
  54970000   283.45034      0              264.81113      515.74988      1.6205894    
  54980000   298.27261      0              253.07412      517.13503     -1.2100042    
  54990000   320.35836      0              259.26055      542.874        0.99700266   
  55000000   309.99301      0              265.22559      539.66258     -2.0455936    
  55010000   303.9672       0              273.37261      542.47495     -0.68228353   
  55020000   314.45461      0              272.67769      551.06454     -0.18300779   
  55030000   302.25872      0              262.24506      529.83488     -0.30711952   
  55040000   276.53183      0              289.66836      534.48215     -0.22504923   
  55050000   289.15983      0              287.5096       543.50297     -1.1593049    
  55060000   332.72621      0              255.97161      550.53432     -1.9538715    
  55070000   311.51166      0              234.3619       510.14336      0.11672353   
  55080000   309.66353      0              252.60816      526.75346      0.12808862   
  55090000   307.47898      0              260.67113      532.88245      0.14327924   
  55100000   273.80651      0              254.35898      496.76004      0.10163976   
  55110000   292.91131      0              256.16384      515.4784       0.023603087  
  55120000   304.97614      0              276.631        546.62655     -0.52617425   
  55130000   288.59507      0              282.48488      537.97827      0.091819756  
  55140000   305.58997      0              263.28786      533.82685      1.0062867    
  55150000   294.12263      0              256.50089      516.88782      1.2920257    
  55160000   308.18361      0              244.9994       517.83453      1.7501076    
  55170000   297.72217      0              239.99297      503.56658     -0.85545196   
  55180000   280.23736      0              253.68         501.77429     -3.0867106    
  55190000   288.951        0              262.94852      518.75701     -0.096958735  
  55200000   287.92823      0              273.00209      527.90512      1.5717577    
  55210000   283.87225      0              258.19379      509.50605      0.22201678   
  55220000   311.3876       0              264.58305      540.25467     -0.86794657   
  55230000   299.63289      0              248.41114      513.67631     -0.57212392   
  55240000   325.71014      0              277.88376      566.23514     -0.069133     
  55250000   306.21938      0              291.87418      562.97038     -0.75139759   
  55260000   293.28782      0              261.74808      521.39596      0.42236217   
  55270000   317.15093      0              247.50615      528.28005      1.7611735    
  55280000   329.44191      0              283.73816      575.39328      1.0671429    
  55290000   299.81988      0              258.26082      523.69154      2.3497999    
  55300000   292.05043      0              269.71279      528.26521      0.65834393   
  55310000   305.27984      0              266.27157      536.53599     -0.79297162   
  55320000   277.69478      0              260.42184      506.26519      1.2875037    
  55330000   316.84058      0              282.85053      563.34968     -0.71790096   
  55340000   307.26361      0              262.30405      534.3247      -1.5262672    
  55350000   298.93234      0              256.0363       520.68128     -0.019988416  
  55360000   271.70514      0              259.92912      500.46984     -1.6648272    
  55370000   309.97265      0              267.63753      542.0565      -0.376476     
  55380000   288.37346      0              253.37926      508.67645     -0.47665871   
  55390000   289.36715      0              277.39941      533.57632     -1.0861252    
  55400000   301.39547      0              266.44286      533.26845      0.10027887   
  55410000   302.07581      0              270.71482      538.14271     -1.5651952    
  55420000   291.43989      0              261.55026      519.56217      1.1233527    
  55430000   296.50213      0              244.193        506.68651     -1.490889     
  55440000   279.69022      0              257.49533      505.10524     -0.95303957   
  55450000   305.76308      0              271.20219      541.89442     -1.7367049    
  55460000   288.53629      0              264.43687      519.87822     -0.16101707   
  55470000   317.69037      0              247.28099      528.53247      1.7773658    
  55480000   298.48311      0              272.24038      536.48766     -1.6938357    
  55490000   319.47852      0              260.97732      543.81184      0.14601607   
  55500000   278.96548      0              254.72032      501.68862     -1.8086494    
  55510000   304.16         0              272.72233      541.99535      1.5539333    
  55520000   300.42184      0              270.90903      536.87266     -1.4196115    
  55530000   320.02446      0              269.56357      552.88141     -0.076982325  
  55540000   298.79022      0              261.2604       525.77956     -2.3667631    
  55550000   298.19306      0              268.10471      532.0952       0.19321693   
  55560000   315.21948      0              273.95158      553.01557      0.08415254   
  55570000   327.20455      0              243.96222      533.6366       1.0405685    
  55580000   277.62465      0              258.15718      503.93844     -0.84877436   
  55590000   315.21605      0              242.62562      521.68657      1.6504315    
  55600000   309.71375      0              263.96686      538.15663     -0.95632799   
  55610000   308.04782      0              272.33748      545.05239     -0.041993495  
  55620000   296.58384      0              270.76988      533.33574      1.3592216    
  55630000   288.22839      0              262.51762      517.68639     -0.41645342   
  55640000   293.66084      0              273.1458       533.12392     -0.5223621    
  55650000   282.98932      0              259.79747      510.32808      0.16966829   
  55660000   309.75512      0              263.4948       537.72119      1.7780094    
  55670000   313.02432      0              276.92387      554.04448      0.2965253    
  55680000   301.09296      0              249.28492      515.84269     -1.7341338    
  55690000   306.03873      0              261.31281      532.24908      0.69015904   
  55700000   318.62453      0              277.2454       559.32388     -0.26573971   
  55710000   309.6984       0              276.13599      550.31216     -1.6114635    
  55720000   315.25147      0              252.24622      531.33853     -0.053446081  
  55730000   289.20408      0              263.55143      519.58397     -0.63062342   
  55740000   303.66567      0              253.52603      522.36142      0.23575552   
  55750000   298.30506      0              258.95313      523.04277      1.1851612    
  55760000   306.39341      0              271.12011      542.37038      0.96258309   
  55770000   298.16157      0              259.18331      523.14592     -0.20309647   
  55780000   297.57181      0              277.2173       540.6578       0.31110034   
  55790000   291.91094      0              269.79358      528.22251      1.8092081    
  55800000   296.10664      0              257.50627      519.64966     -0.41436738   
  55810000   284.82985      0              268.54455      520.70458     -0.40283092   
  55820000   298.10867      0              277.37295      541.28873     -0.30461455   
  55830000   283.06432      0              248.77338      499.3704      -1.1905763    
  55840000   306.56395      0              266.3838       537.78504     -0.58109616   
  55850000   326.53357      0              229.70308      518.78344      0.27248203   
  55860000   294.50805      0              262.62573      523.35388      0.31033809   
  55870000   303.18952      0              269.08108      537.49494     -1.5553126    
  55880000   303.75555      0              260.52535      529.44032     -1.6822246    
  55890000   305.50604      0              262.82254      533.28722     -1.2443168    
  55900000   293.52826      0              269.36828      529.22902     -0.42666454   
  55910000   308.23388      0              258.59572      531.47535      0.25851535   
  55920000   324.915        0              283.55265      571.20009     -0.52091621   
  55930000   300.94067      0              260.65782      527.08077     -1.0533986    
  55940000   326.17505      0              266.86549      555.62845      1.0529239    
  55950000   294.27119      0              273.20292      533.72137     -2.3177714    
  55960000   286.31174      0              245.60612      499.07807      0.33282267   
  55970000   290.11759      0              257.484        514.32527      1.1150988    
  55980000   320.81046      0              271.3271       555.34078      1.501593     
  55990000   294.68339      0              277.87708      538.76046      0.16599818   
  56000000   311.45503      0              255.05996      530.79128      0.78129306   
  56010000   325.89782      0              261.06735      549.58488     -0.65061384   
  56020000   290.62247      0              248.63691      505.92516     -0.70872871   
  56030000   314.56095      0              244.17603      522.65702     -1.2467812    
  56040000   298.7658       0              260.42832      524.92586      0.62043792   
  56050000   301.62964      0              274.51649      541.54939      0.20873216   
  56060000   291.66083      0              250.09572      508.30323     -1.6113753    
  56070000   298.59228      0              275.27687      539.62079      0.88945931   
  56080000   308.67944      0              259.96805      533.24214      0.59596055   
  56090000   283.73414      0              243.35565      494.54565     -0.26702442   
  56100000   293.27932      0              255.0084       514.64875     -0.67169295   
  56110000   309.2731       0              258.78341      532.58307      1.2110367    
  56120000   305.9826       0              230.67694      501.56351     -0.65118665   
  56130000   318.54362      0              255.57931      537.58616     -1.1270206    
  56140000   300.0808       0              262.6618       528.32351     -0.86372206   
  56150000   318.30654      0              252.70578      534.50274      0.029641966  
  56160000   324.46801      0              258.45163      545.70336     -1.0064289    
  56170000   287.01495      0              256.02291      510.11741     -0.68064251   
  56180000   297.52861      0              261.26507      524.66732      0.372109     
  56190000   314.95102      0              265.22067      544.04699     -0.71759401   
  56200000   312.5044       0              273.07033      549.73066     -1.002447     
  56210000   321.77554      0              247.62861      532.49668     -1.1582468    
  56220000   295.65408      0              259.04324      520.78597      0.70461979   
  56230000   311.42859      0              265.94324      541.65115     -0.14426751   
  56240000   309.56997      0              267.2405       541.30298      0.38176446   
  56250000   281.85967      0              222.30132      471.83185      1.561915     
  56260000   293.15388      0              260.54319      520.07249      0.29783328   
  56270000   311.14628      0              265.99641      541.45439     -2.6722893    
  56280000   321.33527      0              249.97304      534.45134     -0.246717     
  56290000   293.864        0              273.79187      533.94984      1.3595108    
  56300000   288.55524      0              274.58599      530.04411      0.033394997  
  56310000   319.72322      0              267.09395      550.1451      -0.79703325   
  56320000   307.64772      0              269.42056      541.78126     -0.20505361   
  56330000   314.02386      0              261.23055      539.23606     -0.17921426   
  56340000   313.18016      0              256.24253      533.50111      0.17882617   
  56350000   318.59761      0              265.49437      547.54902      0.011512928  
  56360000   301.6387       0              271.08981      538.13073     -0.33562957   
  56370000   273.61146      0              249.17597      491.40436     -0.50554157   
  56380000   270.75832      0              248.51211      488.21461      0.36500419   
  56390000   282.55094      0              271.13146      521.27397     -1.3523587    
  56400000   280.33774      0              258.98974      507.1729       0.13504815   
  56410000   303.83239      0              260.82372      529.80671      0.24693042   
  56420000   308.91555      0              256.3619       529.84502     -0.34667806   
  56430000   307.14044      0              260.63678      532.54839      0.94767618   
  56440000   318.98082      0              267.44445      549.83836      0.27629125   
  56450000   280.4554       0              257.7531       506.04043      1.3220409    
  56460000   298.89666      0              272.98251      537.5959       0.052550038  
  56470000   264.19425      0              268.08793      501.97925     -2.0400905    
  56480000   306.99488      0              243.13096      514.91371     -1.0933544    
  56490000   296.11493      0              283.8256       545.97632     -1.0580129    
  56500000   293.99974      0              275.05073      535.32888      0.36747994   
  56510000   290.71422      0              273.44668      530.81615     -1.3525682    
  56520000   310.03136      0              265.17378      539.64472     -0.16873792   
  56530000   324.22452      0              273.09792      560.13408      0.21290652   
  56540000   302.54523      0              263.46209      531.30556      1.6020834    
  56550000   294.18539      0              267.25417      527.69667      0.200825     
  56560000   306.16915      0              269.043        540.09473     -0.15856938   
  56570000   317.0689       0              242.50774      523.20902     -0.093416421  
  56580000   280.06366      0              261.56622      509.50674     -0.60004036   
  56590000   269.81678      0              264.7932       503.66215     -0.66823091   
  56600000   299.26604      0              248.43858      513.37898     -1.0170896    
  56610000   304.75145      0              260.17416      529.9708      -0.36301226   
  56620000   321.14358      0              267.94164      552.25024     -1.3372952    
  56630000   311.52842      0              280.5949       556.39119     -0.8560154    
  56640000   281.47808      0              268.89996      518.09266      0.044274667  
  56650000   305.62613      0              271.23515      541.80614     -0.081463128  
  56660000   292.42774      0              270.36372      529.25017     -3.1851343    
  56670000   322.60088      0              271.14307      556.74182      1.3216958    
  56680000   312.92688      0              242.17009      519.20445      0.13348623   
  56690000   284.59105      0              253.79555      505.74418      0.011861929  
  56700000   308.21945      0              250.43154      523.2984      -0.63509322   
  56710000   288.41349      0              274.44791      529.78054     -0.24550164   
  56720000   292.23464      0              264.37622      523.09172     -0.8288856    
  56730000   317.59357      0              235.58841      516.75418     -0.037644866  
  56740000   321.28371      0              253.10958      537.54224      0.50165156   
  56750000   307.27999      0              275.67593      547.71108      1.5527852    
  56760000   318.13327      0              265.17203      546.8156      -0.98886735   
  56770000   296.27368      0              278.25689      540.54815     -1.1040736    
  56780000   304.77672      0              260.65181      530.47082      0.22632056   
  56790000   306.69455      0              259.3741       530.89096     -0.084594629  
  56800000   280.19919      0              241.47979      489.54029      0.6038077    
  56810000   298.28805      0              266.0614       530.13598      0.95726739   
  56820000   290.9374       0              248.19564      505.76269      0.29098683   
  56830000   276.24706      0              276.63175      521.19344      0.41578727   
  56840000   291.90523      0              289.3697       547.79357     -1.1346815    
  56850000   306.15676      0              265.12417      536.16493      1.6265057    
  56860000   299.13674      0              267.02279      531.84871     -0.85571577   
  56870000   295.71646      0              284.26007      546.05803      1.5779437    
  56880000   304.34116      0              266.36654      535.79996     -1.2405142    
  56890000   327.27788      0              256.22501      545.96431     -0.19222742   
  56900000   307.90658      0              258.43455      531.02442     -0.74331554   
  56910000   271.16534      0              242.24662      482.30945      1.4130394    
  56920000   299.47308      0              276.91259      542.03628     -0.63335614   
  56930000   295.0608       0              275.88698      537.10447     -1.0076552    
  56940000   309.57873      0              267.63816      541.70839      0.44450187   
  56950000   298.13861      0              243.6563       507.59859     -0.79625452   
  56960000   322.93324      0              272.53256      558.42555      1.0001836    
  56970000   313.73729      0              266.00779      543.75959      1.0923428    
  56980000   334.03959      0              249.84896      545.5744      -0.65319161   
  56990000   294.95533      0              258.31569      519.43981     -1.0056211    
  57000000   321.63247      0              268.49498      553.23639      1.7163161    
  57010000   293.67987      0              247.0043       506.99926     -0.58141428   
  57020000   259.71506      0              262.24452      492.17042     -0.18713163   
  57030000   297.69846      0              268.60127      532.15388      1.6264989    
  57040000   291.84005      0              259.71545      518.08161      0.32833098   
  57050000   281.15951      0              300.49372      549.40439      1.3095965    
  57060000   294.61084      0              245.45571      506.27486      0.52982105   
  57070000   301.42119      0              260.45236      527.30072      1.6529799    
  57080000   285.50328      0              284.83003      537.58624     -0.17303818   
  57090000   304.73452      0              271.40986      541.19151     -0.33653943   
  57100000   297.0144       0              280.55448      543.5015       0.92657996   
  57110000   309.11674      0              252.89038      526.55162      1.6986132    
  57120000   282.79292      0              266.05045      516.40718      0.091735126  
  57130000   304.79492      0              282.67547      552.51059      1.3024883    
  57140000   283.01982      0              244.12576      494.68337     -2.0190447    
  57150000   294.68029      0              276.4039       537.28453      1.2867188    
  57160000   314.64154      0              244.63534      523.18767      0.23329483   
  57170000   306.38742      0              278.70193      549.9469       0.71281593   
  57180000   311.38438      0              256.02402      531.6928      -0.43690914   
  57190000   292.28694      0              275.29435      534.05615      0.51182927   
  57200000   311.26473      0              261.52012      537.08297     -0.37632489   
  57210000   283.51614      0              245.20508      496.20208     -0.67046944   
  57220000   306.52673      0              265.76642      537.13471      0.79650159   
  57230000   303.62405      0              253.17124      521.96978     -0.12622547   
  57240000   283.6463       0              276.02343      527.13567     -0.29434787   
  57250000   270.76889      0              279.98358      519.69543     -0.54191561   
  57260000   304.88833      0              270.02508      539.9429      -1.4047636    
  57270000   316.70181      0              260.52256      540.89886      0.25388288   
  57280000   302.52472      0              277.93349      545.7588      -0.26119294   
  57290000   306.96578      0              265.88198      537.63897      0.73010823   
  57300000   289.90397      0              264.16867      520.82082     -0.045288938  
  57310000   293.28776      0              250.66519      510.31301     -0.088078985  
  57320000   308.36219      0              268.04643      541.03966      0.44017639   
  57330000   303.93253      0              257.74052      526.81216     -0.64007801   
  57340000   311.15721      0              254.7806       530.24826     -0.4944434    
  57350000   321.96111      0              250.00717      535.03952      1.0595429    
  57360000   289.04967      0              272.82838      528.72422      0.53352019   
  57370000   302.48136      0              250.13273      517.91966      0.80580181   
  57380000   309.59014      0              266.03975      540.12009     -0.90730565   
  57390000   306.87004      0              280.65504      552.32727     -0.99030736   
  57400000   309.29186      0              266.96482      540.78108      0.6621803    
  57410000   287.7649       0              271.63256      526.39099     -0.14340127   
  57420000   293.73118      0              267.36908      527.40946     -0.54735828   
  57430000   300.42398      0              252.82479      518.79032     -0.16435331   
  57440000   273.6588       0              265.71446      507.98476     -1.1291289    
  57450000   299.39286      0              269.64283      534.6955      -2.5167224    
  57460000   299.43369      0              263.89412      528.98294     -0.51422071   
  57470000   298.18573      0              275.91187      539.89587      0.36678152   
  57480000   313.60438      0              275.39062      553.02477     -0.51325666   
  57490000   338.60565      0              254.22673      553.99451      0.032122131  
  57500000   321.40358      0              269.24021      553.77898      0.7095732    
  57510000   285.27311      0              250.4892       503.04165      0.28505564   
  57520000   289.31309      0              263.73214      519.86119      0.38902671   
  57530000   288.55958      0              260.3091       515.77107     -0.037044038  
  57540000   286.17837      0              249.66327      503.01715      0.34263821   
  57550000   323.25554      0              260.12126      546.29958     -0.43428051   
  57560000   278.19612      0              290.08168      536.36887     -0.069071714  
  57570000   267.29286      0              250.05453      486.68906     -0.53835084   
  57580000   305.74336      0              266.26283      536.93761     -0.24275732   
  57590000   315.74624      0              265.06521      544.59555     -0.10076483   
  57600000   287.64963      0              255.80548      510.46187     -0.02000902   
  57610000   306.42163      0              266.84731      538.12256     -1.0041719    
  57620000   272.14775      0              258.06288      498.99544     -0.90576637   
  57630000   298.27373      0              274.0314       538.09332      0.15354605   
  57640000   309.07011      0              257.29647      530.91642      2.0348705    
  57650000   286.02834      0              251.72791      504.94896      0.16377702   
  57660000   304.65693      0              283.75494      553.4679       0.051409159  
  57670000   310.88281      0              270.45546      545.6802      -0.59623103   
  57680000   324.37288      0              267.04804      554.21554     -1.4191801    
  57690000   294.35521      0              277.30925      537.90208     -0.32334591   
  57700000   291.68439      0              262.7278       520.95616     -2.7455575    
  57710000   317.02912      0              281.07291      561.73898     -0.21171325   
  57720000   303.8853       0              264.30795      533.33778      1.3748804    
  57730000   306.81301      0              264.37505      535.99679      1.1113497    
  57740000   309.91384      0              276.97953      551.34643      0.16059124   
  57750000   284.48673      0              258.31494      510.1712       0.61304263   
  57760000   306.47972      0              266.34203      537.6687       0.18214514   
  57770000   293.80376      0              274.01023      534.11488     -0.19571668   
  57780000   282.04691      0              257.49109      507.18739     -0.054077523  
  57790000   268.30648      0              236.04828      473.58016     -0.26602421   
  57800000   295.35264      0              263.46911      524.94497     -0.54277792   
  57810000   284.79272      0              269.11917      521.24633     -0.74691463   
  57820000   285.57604      0              260.17235      512.99298      0.57223869   
  57830000   315.19556      0              264.90862      543.95144     -0.41827885   
  57840000   283.36092      0              267.34246      518.20205     -0.030242516  
  57850000   293.38198      0              243.89726      503.6285      -0.56491353   
  57860000   332.27529      0              277.68593      571.84944     -0.18761436   
  57870000   290.05096      0              246.1631       502.94538      0.071853483  
  57880000   295.62264      0              281.03199      542.74689      0.21476392   
  57890000   293.88175      0              272.82337      532.99706      1.578387     
  57900000   295.09423      0              250.98619      512.23328      0.63424729   
  57910000   311.29325      0              277.28965      552.87775     -0.7657796    
  57920000   291.41964      0              263.88854      521.88251      0.080596086  
  57930000   299.93965      0              268.59479      534.13154     -0.5191823    
  57940000   317.93913      0              262.52145      543.99315      0.15245172   
  57950000   290.42288      0              256.66334      513.77489     -0.66714254   
  57960000   306.68157      0              287.80615      559.31153     -0.24588242   
  57970000   308.39959      0              255.30901      528.33535      0.26145673   
  57980000   311.6665       0              274.2504       550.16894      1.2796221    
  57990000   340.73134      0              261.34189      562.99154     -1.0440193    
  58000000   263.35672      0              257.8726       491.02246     -0.0304104    
  58010000   334.71277      0              272.81657      569.13799     -1.5734066    
  58020000   288.94217      0              264.3685       520.16917      0.025596862  
  58030000   306.07781      0              248.94486      519.91573      0.55174865   
  58040000   276.08367      0              261.02321      505.44025      0.0081808558 
  58050000   308.06441      0              270.66535      543.39495     -1.3904132    
  58060000   313.50159      0              272.37882      549.92196      1.788828     
  58070000   307.68784      0              263.22284      535.61906     -1.3678424    
  58080000   306.24749      0              272.25245      543.37353     -1.2418486    
  58090000   300.97371      0              270.86539      537.31759     -1.351167     
  58100000   312.9084       0              289.93578      566.95377      0.85862843   
  58110000   279.66002      0              286.73477      534.31794     -0.18026808   
  58120000   326.7853       0              260.6643       549.96752     -0.59580661   
  58130000   322.0088       0              268.52713      553.60171     -0.023512128  
  58140000   300.02858      0              250.44667      516.06215      0.16220247   
  58150000   322.30045      0              252.34706      537.67984      0.37517165   
  58160000   299.36996      0              281.62751      546.6599       0.024926312  
  58170000   306.44589      0              255.84568      527.1424      -1.0144103    
  58180000   309.69353      0              263.41955      537.59141     -0.29161069   
  58190000   309.25175      0              255.40432      529.18508      0.58960656   
  58200000   309.61697      0              267.57145      541.67554      0.69649162   
  58210000   312.50541      0              255.71561      532.37684     -0.1717606    
  58220000   311.90264      0              264.94342      541.071        0.0055807397 
  58230000   279.68878      0              275.54836      523.157       -0.98474502   
  58240000   304.27328      0              262.80507      532.17838     -2.4510301    
  58250000   279.76074      0              260.48593      508.15827     -1.1217334    
  58260000   286.73509      0              256.84063      510.68737     -1.5011138    
  58270000   323.12829      0              258.94427      545.00993      0.6981211    
  58280000   313.76513      0              250.67152      528.44798      0.087831896  
  58290000   304.43515      0              266.30889      535.82551      0.1444215    
  58300000   296.24767      0              249.54783      511.81606      0.59739231   
  58310000   278.5296       0              273.08663      519.66905      1.5208307    
  58320000   307.75447      0              281.15962      553.61483     -0.55472574   
  58330000   278.08712      0              254.38795      500.57864     -0.80312493   
  58340000   296.61381      0              282.47637      545.06875      1.2452523    
  58350000   304.31661      0              252.74481      522.15647     -0.34767823   
  58360000   292.48823      0              261.57421      520.51421     -1.654208     
  58370000   310.27507      0              280.9222       555.60891     -0.074560579  
  58380000   314.38732      0              255.22649      533.55376      1.0199904    
  58390000   295.6758       0              258.01772      519.77967      0.76060681   
  58400000   308.898        0              272.25908      545.72666     -0.34341464   
  58410000   317.61697      0              272.4219       553.60839     -2.180162     
  58420000   312.70783      0              270.88574      547.72616     -0.81627533   
  58430000   309.07272      0              291.29761      564.91987     -0.74886926   
  58440000   282.90093      0              274.17525      524.62761     -0.053677667  
  58450000   324.66087      0              284.60929      572.03174      0.30487548   
  58460000   340.84488      0              279.78246      581.53263      0.24994529   
  58470000   301.77881      0              272.78877      539.95373     -0.39727861   
  58480000   318.92944      0              241.28273      523.63115      0.0041565673 
  58490000   285.04185      0              252.98491      505.33263      1.4611945    
  58500000   306.48167      0              270.46316      541.79155     -0.38479299   
  58510000   299.66816      0              245.14751      510.44391     -2.9435575    
  58520000   299.283        0              277.00777      541.96318     -0.96751807   
  58530000   265.75624      0              257.06606      492.34021     -1.0027473    
  58540000   283.55224      0              287.27942      538.30838     -0.30155373   
  58550000   294.45819      0              258.54639      519.23039      0.057604363  
  58560000   299.96839      0              272.20866      537.77085      1.3118555    
  58570000   288.40146      0              248.71406      504.03603     -0.098453639  
  58580000   312.96908      0              273.58088      550.65258      0.26660334   
  58590000   312.52647      0              253.27896      529.95882     -0.63846867   
  58600000   312.79009      0              246.72566      523.63891      1.648653     
  58610000   307.2457       0              266.36588      538.37068      0.44691946   
  58620000   293.55484      0              248.80533      508.68961     -1.4325077    
  58630000   288.26057      0              284.17379      539.37103      0.096031771  
  58640000   291.64093      0              238.02152      496.21141      0.51107456   
  58650000   300.61987      0              263.72746      529.86641     -1.2374449    
  58660000   297.31226      0              252.88669      516.09741      1.0899734    
  58670000   299.96792      0              259.10375      524.66552      0.84409062   
  58680000   271.72716      0              285.12986      525.69007     -1.7043792    
  58690000   283.22107      0              258.62205      509.35783      0.18019082   
  58700000   287.58278      0              237.50759      492.1048       0.19285296   
  58710000   277.59288      0              282.54191      528.29505      0.7860549    
  58720000   324.27007      0              264.30193      551.37841      0.90538748   
  58730000   307.74908      0              262.82502      535.27545      0.25656748   
  58740000   317.03231      0              260.79061      541.4595      -0.60230609   
  58750000   274.94973      0              253.72254      497.1357       0.0050827449 
  58760000   264.71283      0              259.20573      493.55615     -0.61357042   
  58770000   322.08518      0              268.76198      553.90418      1.366357     
  58780000   291.86191      0              276.58918      534.9747      -1.7681259    
  58790000   319.05084      0              269.52884      551.98473     -0.29068402   
  58800000   304.33052      0              256.24252      525.66651     -0.25575612   
  58810000   301.40639      0              252.7696       519.60485     -0.44748231   
  58820000   276.22822      0              249.83029      494.37529      0.411814     
  58830000   295.77564      0              273.08767      534.93801      0.63327738   
  58840000   311.39535      0              275.06401      550.7425      -1.3783683    
  58850000   308.8298       0              274.34939      547.75659      0.75750736   
  58860000   314.57748      0              258.30068      536.7963       0.62372807   
  58870000   287.51694      0              265.78032      520.31923      1.2659309    
  58880000   294.57192      0              253.59242      514.37711      0.62298813   
  58890000   285.2317       0              265.63122      518.14701     -0.95050581   
  58900000   291.04619      0              264.33012      521.99349      0.43759945   
  58910000   302.70397      0              265.3991       533.38311      0.10826796   
  58920000   292.78661      0              258.01704      517.22119     -0.21373181   
  58930000   298.50352      0              258.69158      522.95691      0.61436321   
  58940000   330.46803      0              241.57702      534.14056     -0.14633701   
  58950000   305.11726      0              254.10244      524.22293      0.69965103   
  58960000   321.87277      0              286.6792       571.63335     -1.183593     
  58970000   299.25534      0              224.63573      489.56666     -0.92404914   
  58980000   300.2729       0              288.74697      554.57874     -0.92270002   
  58990000   319.12127      0              265.50419      548.02244      1.1808592    
  59000000   287.81093      0              268.97805      523.77724     -0.10741932   
  59010000   284.65082      0              266.41291      518.41445     -1.1800171    
  59020000   295.0652       0              254.78816      516.00956     -0.21748107   
  59030000   278.66909      0              274.2743       520.98021      1.5000143    
  59040000   291.58206      0              268.77914      526.9169      -1.4885738    
  59050000   294.84152      0              269.57126      530.59463      1.1612202    
  59060000   297.12629      0              254.6065       517.65257     -0.93145821   
  59070000   330.22803      0              251.63808      543.98915     -1.9676188    
  59080000   281.59123      0              287.80802      537.1009      -0.69033912   
  59090000   292.78568      0              283.75193      542.95526      0.5627678    
  59100000   290.88911      0              257.4752       514.9995      -0.31018283   
  59110000   319.91879      0              266.80561      550.02991     -1.2969712    
  59120000   314.16023      0              273.55556      551.6818      -1.8666996    
  59130000   327.57024      0              248.61976      538.61788      1.6042047    
  59140000   290.45824      0              272.52312      529.66598     -1.5401271    
  59150000   299.87943      0              271.95031      537.43374      1.784532     
  59160000   286.54281      0              276.46424      530.14076      0.13891194   
  59170000   295.3186       0              261.52631      522.97204      1.7918851    
  59180000   299.0836       0              261.5921       526.37098     -0.9483559    
  59190000   271.66855      0              252.69852      493.20685     -0.22403941   
  59200000   296.20875      0              265.21897      527.45274     -0.4583301    
  59210000   322.86783      0              276.12244      561.95752      0.42195047   
  59220000   297.54786      0              249.80131      513.2206       0.4566158    
  59230000   304.07336      0              263.90556      533.10188     -0.015859923  
  59240000   299.90833      0              283.00199      548.51101     -0.84581634   
  59250000   299.60656      0              243.75972      509.00158     -0.1770923    
  59260000   279.79928      0              260.02131      507.72778      1.1348506    
  59270000   319.7969       0              237.39329      520.50967      0.59973327   
  59280000   289.20094      0              281.68981      537.71957      0.016267927  
  59290000   280.85418      0              258.73072      507.37109      0.27374623   
  59300000   308.68593      0              278.48295      551.76278      1.996787     
  59310000   315.6345       0              245.33009      524.76149      0.58496415   
  59320000   292.87052      0              276.22839      535.50684     -0.30841408   
  59330000   295.30932      0              262.72206      524.15957      0.50959074   
  59340000   283.17198      0              270.43712      521.12944      1.232094     
  59350000   290.80923      0              274.91345      532.36703     -1.1428312    
  59360000   324.91563      0              269.0535       556.7015       0.093927937  
  59370000   297.33842      0              274.25747      537.49134     -0.5446021    
  59380000   287.8121       0              266.04775      520.84798      1.7369213    
  59390000   296.07696      0              290.93239      553.04949     -0.78341343   
  59400000   302.16946      0              246.93093      514.44173     -2.3306981    
  59410000   299.85176      0              264.57371      530.03266      0.55218037   
  59420000   300.13885      0              271.20988      536.92299      0.24826063   
  59430000   284.67585      0              253.26614      505.28983     -1.1656695    
  59440000   307.24294      0              273.0958       545.09815      0.91515952   
  59450000   292.16007      0              270.10594      528.75543     -2.4108789    
  59460000   302.62835      0              267.82318      535.74024      0.2561264    
  59470000   318.96026      0              281.17457      563.55027      1.021847     
  59480000   336.10788      0              244.48878      542.04528      0.99183399   
  59490000   288.11218      0              275.35335      530.41922      0.72875407   
  59500000   290.22997      0              255.48484      512.4256       0.1591905    
  59510000   303.75656      0              245.12287      514.03873      0.64571528   
  59520000   303.30503      0              262.20992      530.72604     -1.3190531    
  59530000   294.23251      0              278.08129      538.5655       3.1043377    
  59540000   296.33933      0              262.55709      524.90647      0.40077207   
  59550000   284.43186      0              245.79671      497.60441      0.10583841   
  59560000   320.07816      0              261.64965      545.01504      0.37645858   
  59570000   305.38475      0              268.51377      538.87107     -1.4653984    
  59580000   294.62349      0              266.77176      527.60211      0.52221341   
  59590000   302.90062      0              265.88796      534.04606     -1.6292092    
  59600000   305.18351      0              261.28231      531.46146     -0.45414458   
  59610000   297.595        0              257.68301      521.14404     -0.62793995   
  59620000   323.67818      0              262.91704      549.46952     -0.73760264   
  59630000   297.59593      0              257.79086      521.25271     -2.256006     
  59640000   300.18453      0              255.11608      520.86961      0.2243595    
  59650000   308.3798       0              290.98875      563.99757     -0.56425412   
  59660000   311.85974      0              261.02149      537.1111      -0.071785214  
  59670000   308.99411      0              238.25584      511.80851     -0.70947258   
  59680000   294.21292      0              286.77185      547.23872      0.60646274   
  59690000   280.07647      0              254.35731      502.30917      1.8330052    
  59700000   276.5981       0              252.31184      497.1843       0.63223588   
  59710000   314.75381      0              261.60042      540.25215     -0.82390377   
  59720000   300.85268      0              259.07566      525.42071      1.0606839    
  59730000   307.70755      0              258.70207      531.11574     -1.1453351    
  59740000   279.42088      0              249.58674      496.95821     -0.70384676   
  59750000   308.12358      0              249.71349      522.49548      0.19658835   
  59760000   310.94519      0              260.58736      535.86732     -0.68101802   
  59770000   329.5848       0              265.25802      557.03964     -0.56483412   
  59780000   273.50507      0              248.99303      491.12723     -0.32557398   
  59790000   277.03549      0              269.68824      514.94791      0.12107911   
  59800000   315.55415      0              263.33736      542.69763      0.027158929  
  59810000   316.07856      0              266.62972      546.45425     -1.0169832    
  59820000   284.82138      0              277.06445      529.21698     -0.60121839   
  59830000   298.15186      0              272.35158      536.3056       0.65199098   
  59840000   294.3278       0              265.71464      526.28321      0.31862338   
  59850000   305.55058      0              251.32892      521.83302      1.4411469    
  59860000   269.16333      0              263.01875      501.3092      -0.35196351   
  59870000   293.0754       0              281.09621      540.55603     -0.92595805   
  59880000   299.71642      0              276.35353      541.69266      0.74006524   
  59890000   285.61854      0              249.95505      502.81331     -0.70045259   
  59900000   309.08376      0              275.45943      549.09146     -0.77271028   
  59910000   296.1546       0              248.83186      511.0177      -0.36167835   
  59920000   292.54765      0              270.7199       529.71251     -0.29186948   
  59930000   290.90977      0              245.05504      502.59763     -0.4686229    
  59940000   281.63714      0              254.25368      503.5872       0.83583625   
  59950000   318.33761      0              288.81951      570.64398     -0.69465433   
  59960000   302.05817      0              265.77089      533.18316      0.98585208   
  59970000   292.36218      0              287.97843      546.80684     -1.8449866    
  59980000   298.35127      0              269.68219      533.81274     -0.25105489   
  59990000   293.4802       0              278.08064      537.89884      0.43387622   
  60000000   307.4143       0              266.8702       539.02425     -0.20475279   
  60010000   304.35825      0              262.66723      532.11576     -1.3870009    
  60020000   281.25974      0              233.29068      482.29008      1.4868746    
  60030000   314.4664       0              261.55528      539.95256     -0.06018275   
  60040000   306.37381      0              268.84075      540.07366     -2.0184647    
  60050000   291.54606      0              252.10303      510.20893      0.29297815   
  60060000   285.67469      0              275.96433      528.8723       0.26450167   
  60070000   290.50649      0              264.01847      521.20404      0.51493818   
  60080000   306.24075      0              262.55367      533.66878      1.4390498    
  60090000   318.70806      0              273.15568      555.30811     -0.0062105287 
  60100000   319.0709       0              279.86122      562.33488      1.4944081    
  60110000   283.42337      0              254.52953      505.44441     -0.55770949   
  60120000   308.4569       0              271.21781      544.29488     -1.4324761    
  60130000   294.74621      0              285.76175      546.70074     -0.26627175   
  60140000   326.84007      0              268.24067      557.59237      1.0905778    
  60150000   283.93662      0              263.56909      514.93834      0.57533657   
  60160000   302.32611      0              274.13001      541.77949      0.83958623   
  60170000   311.5139       0              260.4525       536.23594      2.881589     
  60180000   302.78271      0              261.58856      529.64227      1.6384355    
  60190000   278.21358      0              254.64586      500.94851     -0.14256681   
  60200000   316.77991      0              267.48799      547.93343     -0.59000624   
  60210000   318.33871      0              258.99105      540.81649      0.43448139   
  60220000   297.58524      0              268.30765      531.76004     -0.3409959    
  60230000   289.82146      0              258.97742      515.55653     -0.76791735   
  60240000   311.1376       0              265.72099      541.17128     -1.4536022    
  60250000   291.03542      0              270.30827      527.96209      0.20114101   
  60260000   303.74853      0              254.76877      523.67752     -0.59730473   
  60270000   306.9949       0              274.17857      545.96133     -1.2503       
  60280000   286.06955      0              260.66004      513.91758     -0.31445358   
  60290000   304.30484      0              254.11354      523.51479      0.56699397   
  60300000   314.83458      0              282.14943      560.87267     -0.31013474   
  60310000   277.12053      0              279.82192      525.15689     -0.65170675   
  60320000   297.9597       0              264.93538      528.71928      0.9465697    
  60330000   317.93622      0              251.9622       533.43132      0.25765711   
  60340000   306.9655       0              263.14409      534.90083     -0.25612279   
  60350000   309.34429      0              263.79267      537.65535      0.99462371   
  60360000   298.03948      0              258.61435      522.46888      0.58516009   
  60370000   304.50457      0              253.77867      523.35674      1.1988938    
  60380000   305.13377      0              244.31881      514.45392     -1.2575797    
  60390000   279.38157      0              267.90428      515.24095      0.37890074   
  60400000   306.66481      0              258.96699      530.45753      0.50328508   
  60410000   277.27233      0              292.79921      538.26857     -0.28205195   
  60420000   345.32749      0              249.25776      554.9764       0.47678978   
  60430000   289.18325      0              253.43623      509.45033     -0.062707793  
  60440000   289.96397      0              280.86593      537.5712      -0.93758837   
  60450000   306.65275      0              283.82841      555.30827     -2.001274     
  60460000   307.67072      0              269.31481      541.69588      1.0809636    
  60470000   301.57801      0              251.67409      518.66128      1.7355013    
  60480000   298.91855      0              263.65156      528.28433      0.28159758   
  60490000   288.50792      0              288.02523      543.44147     -0.25653496   
  60500000   313.93637      0              268.99421      546.92227     -0.55757968   
  60510000   277.74015      0              279.10226      524.98578      0.48133151   
  60520000   286.59526      0              270.03645      523.75941      1.0538308    
  60530000   304.78108      0              261.32673      531.1496       0.82155572   
  60540000   319.76995      0              269.55285      552.64537      0.5984184    
  60550000   306.89474      0              281.48035      553.17444      0.22103947   
  60560000   304.8637       0              269.25383      539.14984      0.53101949   
  60570000   311.20561      0              263.17584      538.68635     -1.1500079    
  60580000   312.52543      0              260.65963      537.33858     -1.1004126    
  60590000   326.47896      0              249.31492      538.34693     -0.14092063   
  60600000   290.20662      0              271.05478      527.97487     -0.50464394   
  60610000   288.07908      0              269.73387      524.77046      1.5486944    
  60620000   307.36896      0              273.14089      545.25481      1.3081387    
  60630000   308.85676      0              243.84116      517.27222      0.29313449   
  60640000   283.08999      0              247.9333       498.55303     -0.26065937   
  60650000   324.61215      0              253.61104      540.99036      2.6080921    
  60660000   290.56047      0              261.5256       518.75895      0.10794847   
  60670000   302.19306      0              264.06133      531.59302     -1.3711905    
  60680000   322.06051      0              254.95635      540.07671     -0.38128427   
  60690000   303.95474      0              253.32736      522.41867     -0.33465684   
  60700000   278.17042      0              245.74034      492.00477      1.4936355    
  60710000   319.1867       0              273.44556      556.02173     -0.44431501   
  60720000   318.7142       0              288.86279      571.02067     -0.56682079   
  60730000   313.62808      0              281.55225      559.20737      2.0944902    
  60740000   304.30634      0              263.70793      533.11051     -1.1257157    
  60750000   288.55937      0              264.20945      519.67122      0.54455549   
  60760000   292.71698      0              309.71777      568.86029     -2.0879275    
  60770000   281.89004      0              261.02428      510.58169     -0.34497179   
  60780000   307.3368       0              269.25247      541.33792      0.22576205   
  60790000   286.98551      0              291.69051      545.75895     -0.59483792   
  60800000   297.68441      0              244.63755      508.17773     -1.9366852    
  60810000   285.99837      0              292.58673      545.78125     -0.062130234  
  60820000   278.45024      0              261.99509      508.50725      0.21710916   
  60830000   312.3896       0              283.51896      560.07766      0.23025991   
  60840000   300.31354      0              288.72969      554.59745      0.28463717   
  60850000   324.05183      0              292.20309      579.08636      0.36129955   
  60860000   311.70764      0              255.70052      531.65548      0.14264134   
  60870000   291.52337      0              253.53603      511.62184      1.4757461    
  60880000   301.34396      0              247.5134       514.29339     -1.4288874    
  60890000   298.42842      0              261.62939      525.82825      0.4959921    
  60900000   304.82987      0              243.14128      513.00735     -1.0418934    
  60910000   306.55189      0              278.4968       549.88736     -1.5019248    
  60920000   308.26104      0              275.36799      548.27167      0.2366048    
  60930000   325.62286      0              273.23009      561.5042       1.4720394    
  60940000   324.27833      0              293.6263       580.71009     -1.0793593    
  60950000   290.46322      0              268.40258      525.54985      0.11370975   
  60960000   291.60261      0              256.23527      514.39124     -0.0056160532 
  60970000   297.86272      0              275.56422      539.26226      0.06309266   
  60980000   280.38393      0              287.73276      535.95682     -1.7541612    
  60990000   291.04217      0              272.98369      530.64349      0.12451687   
  61000000   316.04177      0              255.38297      535.17494      1.3121211    
  61010000   289.34896      0              236.99443      493.15523     -2.5185202    
  61020000   289.3781       0              299.21612      555.40272      1.404823     
  61030000   316.85896      0              268.56561      549.08103      0.69679817   
  61040000   328.97421      0              260.53806      551.77913      0.31458374   
  61050000   291.85782      0              266.05703      524.43893     -0.88978511   
  61060000   315.71532      0              263.80337      543.30633     -0.26688135   
  61070000   307.46993      0              249.69072      521.89403     -1.1093883    
  61080000   301.735        0              263.0127       530.13887      0.12109071   
  61090000   299.27786      0              246.08455      511.03542     -0.11810635   
  61100000   315.93529      0              257.65538      537.35308     -0.97416207   
  61110000   304.73866      0              252.03069      521.816        0.40037093   
  61120000   299.94202      0              248.44201      513.98086      1.1163427    
  61130000   311.13318      0              288.08793      563.53431     -1.3372338    
  61140000   323.71815      0              271.05029      557.63815      0.9120202    
  61150000   299.14326      0              269.44311      534.27482     -0.33852541   
  61160000   291.40804      0              274.31475      532.29846      0.52291591   
  61170000   310.81868      0              256.77402      531.94198      0.85492913   
  61180000   294.9979       0              254.2922       515.45401      0.1579047    
  61190000   287.23983      0              270.08745      524.38104      1.1056492    
  61200000   293.53388      0              284.95044      544.81615     -0.2945667    
  61210000   287.53861      0              249.78277      504.34086     -0.24017911   
  61220000   291.90012      0              283.38266      541.80201      0.065515969  
  61230000   307.10764      0              275.92559      547.80816     -2.0418701    
  61240000   302.39098      0              245.09707      512.80398      0.69173029   
  61250000   310.95412      0              255.46924      530.75711     -0.88188361   
  61260000   297.58021      0              267.29333      530.74126     -1.1295387    
  61270000   305.80334      0              273.42921      544.15708     -0.043783327  
  61280000   328.62537      0              264.00948      554.94172     -1.8624234    
  61290000   297.29616      0              269.69252      532.88898     -1.8159129    
  61300000   288.08244      0              261.27385      516.3134       0.84784273   
  61310000   323.59792      0              257.50683      543.98826      0.9910693    
  61320000   293.81167      0              252.66083      512.77248     -1.2411509    
  61330000   293.47314      0              275.34616      535.1581      -0.78197854   
  61340000   304.45635      0              269.59831      539.1337      -1.276387     
  61350000   291.47314      0              239.58276      497.6241      -0.34323241   
  61360000   293.93456      0              264.65983      524.88027     -2.1954188    
  61370000   295.87581      0              250.8588       512.79782     -0.72441855   
  61380000   323.3724       0              256.76456      543.04634     -0.95896788   
  61390000   295.61807      0              269.12549      530.83635     -1.3121289    
  61400000   316.04988      0              247.08529      526.88443     -0.84661313   
  61410000   290.23488      0              245.59247      502.53759      0.59288188   
  61420000   296.28031      0              242.21043      504.50756      0.85167377   
  61430000   293.60667      0              269.53996      529.47011     -0.28010157   
  61440000   300.86683      0              268.35901      534.7166      -0.88667195   
  61450000   297.28908      0              244.08272      507.27291     -1.0294023    
  61460000   272.9022       0              251.65176      493.25224     -1.0260655    
  61470000   305.29115      0              233.306        503.58043     -0.71864493   
  61480000   323.70547      0              261.32243      547.89907      0.60308277   
  61490000   314.02085      0              262.82563      540.82848     -1.244521     
  61500000   291.93253      0              277.33934      535.78737     -0.36532149   
  61510000   312.47095      0              236.41928      513.05         0.96289108   
  61520000   311.62306      0              279.45449      555.33456      0.051391548  
  61530000   280.44083      0              264.68763      512.96206      1.309923     
  61540000   295.74458      0              275.97265      537.79551     -0.085289356  
  61550000   298.44408      0              266.30458      530.5173      -0.97085213   
  61560000   289.73109      0              259.36186      515.86096      0.88925405   
  61570000   268.05001      0              278.37114      515.67597     -0.99091514   
  61580000   281.29852      0              280.39937      529.43311     -1.538778     
  61590000   264.74465      0              250.39981      484.77841     -0.079734681  
  61600000   287.16643      0              245.66057      499.88917      0.84134223   
  61610000   314.20886      0              271.17957      549.34886     -0.10736045   
  61620000   297.46742      0              245.96491      509.31299      0.43047925   
  61630000   288.25257      0              240.79287      495.98304     -0.16505626   
  61640000   310.82271      0              261.99735      537.16888      0.091182926  
  61650000   292.41099      0              251.63712      510.50874      0.68322038   
  61660000   290.41547      0              269.34126      526.44625     -0.44441715   
  61670000   290.74212      0              276.25907      533.65324      0.34273132   
  61680000   312.42446      0              267.3785       543.96806     -0.4605309    
  61690000   310.48387      0              253.11486      527.98641     -0.68390027   
  61700000   283.69672      0              280.77727      531.93414      0.047910874  
  61710000   309.77536      0              266.90262      541.14693     -1.7650465    
  61720000   295.03775      0              270.1765       531.3736      -0.68052947   
  61730000   339.24277      0              244.95161      545.28344      0.71854605   
  61740000   290.82935      0              250.19179      507.66319     -0.31235257   
  61750000   329.8016       0              249.45215      541.4257       0.41948712   
  61760000   296.8564       0              270.19356      533.0007      -0.79893282   
  61770000   299.25178      0              274.99313      539.9209       0.19454658   
  61780000   288.45983      0              259.66676      515.04042     -0.61967067   
  61790000   309.58393      0              237.99889      512.07372     -0.86810328   
  61800000   337.44142      0              258.94484      557.68193     -1.0086215    
  61810000   305.77061      0              256.86148      527.56038      1.2860936    
  61820000   317.84241      0              271.21698      552.60305      0.79257591   
  61830000   284.19081      0              269.00039      520.59468     -2.214292     
  61840000   299.90558      0              251.13512      516.6417      -1.9386572    
  61850000   296.29281      0              278.94392      541.25212      0.82514293   
  61860000   327.89665      0              262.39553      552.68263      0.023375884  
  61870000   307.27023      0              276.67738      548.70389      0.15996389   
  61880000   275.17413      0              274.84024      518.45206      3.0579201    
  61890000   300.73995      0              255.89142      522.13667     -0.62068596   
  61900000   295.67374      0              255.52681      517.28695     -1.3375929    
  61910000   283.88244      0              250.36672      501.68801     -0.57503944   
  61920000   278.59023      0              264.55097      511.18707     -2.0205567    
  61930000   304.70593      0              261.04484      530.80118      1.1889107    
  61940000   290.16721      0              269.91534      526.80054     -0.54594573   
  61950000   287.44901      0              278.15945      532.63823      0.65305067   
  61960000   264.76027      0              258.76727      493.15969     -0.7459125    
  61970000   294.73064      0              245.34893      506.27414      1.0146937    
  61980000   305.04914      0              245.13013      515.1903       0.21704098   
  61990000   286.00602      0              244.33509      497.53639      0.95478426   
  62000000   295.28617      0              273.7706       535.18762      0.69088026   
  62010000   268.27299      0              255.20145      492.70369      0.36035807   
  62020000   305.83742      0              270.85301      541.61106      0.79692075   
  62030000   286.00229      0              252.83551      506.03351     -1.2997521    
  62040000   295.11041      0              260.78967      522.05109     -1.8245275    
  62050000   315.64754      0              265.18112      544.62408      0.91375524   
  62060000   315.83568      0              270.74992      550.35943     -0.92991896   
  62070000   290.08191      0              273.90885      530.71854      0.11369065   
  62080000   309.42948      0              258.98764      532.92574      0.42366979   
  62090000   292.9024       0              245.50041      504.80708     -0.79032465   
  62100000   314.75412      0              256.60477      535.25678      0.20196724   
  62110000   302.42938      0              260.78165      528.52256      0.18215396   
  62120000   301.44179      0              256.24134      523.10793      0.91420293   
  62130000   305.7612       0              248.6086       519.29917     -1.0437875    
  62140000   307.59064      0              264.95685      537.26703     -0.53905622   
  62150000   315.6081       0              260.12243      539.53047      1.7194472    
  62160000   302.53311      0              258.2719       526.10464     -0.53222273   
  62170000   288.25124      0              280.65622      535.84521      1.0149635    
  62180000   297.23243      0              278.11226      541.2523       1.4286773    
  62190000   293.62729      0              261.52328      521.47169     -0.71445885   
  62200000   292.14604      0              245.81579      504.45286     -0.10237659   
  62210000   283.57886      0              263.06844      514.12097      0.31052772   
  62220000   275.13016      0              278.00776      521.58065     -1.2249551    
  62230000   297.35789      0              277.02282      540.27393     -1.0763428    
  62240000   287.64276      0              284.03458      538.68488     -0.048890017  
  62250000   295.94205      0              256.04106      518.03873      0.63683003   
  62260000   304.46974      0              242.43169      511.97893     -0.30666411   
  62270000   310.24854      0              277.80873      552.47194     -1.2525102    
  62280000   318.11708      0              267.37804      549.00728     -0.24107174   
  62290000   300.03032      0              274.40735      540.02437     -0.95420943   
  62300000   271.14089      0              251.48855      491.52973      0.66822389   
  62310000   296.83074      0              248.81877      511.60319      0.62005277   
  62320000   299.24226      0              249.9631       514.88245     -0.54980054   
  62330000   285.80361      0              287.93287      540.95498      0.41807453   
  62340000   327.79985      0              257.00392      547.20532      0.11745231   
  62350000   295.29745      0              254.35555      515.78255      0.36030486   
  62360000   319.98218      0              257.64472      540.92514      2.5807984    
  62370000   312.16981      0              256.14379      532.50791     -1.6463791    
  62380000   298.00366      0              230.77401      494.59682     -0.19564178   
  62390000   304.65422      0              261.84917      531.55973     -0.84681942   
  62400000   297.42811      0              258.78078      522.09406     -1.2322694    
  62410000   293.69168      0              260.83334      520.83876      0.11140647   
  62420000   321.85858      0              260.8798       545.82139      0.21180691   
  62430000   299.16373      0              244.64923      509.49905      1.9368392    
  62440000   315.39237      0              273.98663      553.20368     -0.047559722  
  62450000   323.52654      0              253.76118      540.17941      1.3762712    
  62460000   297.05189      0              272.70064      535.68086      0.11196842   
  62470000   287.27312      0              269.03367      523.35673      1.1477617    
  62480000   299.62585      0              262.86802      528.12696      0.51551544   
  62490000   314.47157      0              270.5562       548.95807      1.116372     
  62500000   317.2471       0              267.8524       548.71145      0.35562498   
  62510000   288.43785      0              257.64403      512.99823     -0.048581102  
  62520000   303.9351       0              260.57265      529.64657     -2.2737603    
  62530000   300.37393      0              262.87015      528.79136      0.45472529   
  62540000   306.37551      0              275.7604       546.99482     -0.88119267   
  62550000   301.57383      0              252.15297      519.13646     -2.6764415    
  62560000   308.08155      0              270.41628      543.16106     -0.12466927   
  62570000   279.32338      0              249.74897      497.03412     -1.687829     
  62580000   297.15711      0              267.15353      530.2269       0.35344673   
  62590000   308.70719      0              262.3199       535.61856     -1.739626     
  62600000   312.05153      0              257.94692      534.20632      0.74727666   
  62610000   305.71067      0              273.99772      544.64356      0.36241247   
  62620000   289.97715      0              268.64234      525.35928     -0.35995695   
  62630000   303.96149      0              275.37592      544.47321      0.28861523   
  62640000   281.8613       0              279.40642      528.9384       0.2322569    
  62650000   311.27296      0              239.57839      515.14852      1.7925979    
  62660000   287.25669      0              273.53093      527.83945      0.765209     
  62670000   293.30718      0              249.45893      509.12395     -0.52139597   
  62680000   308.29511      0              243.31552      516.24936     -0.10053442   
  62690000   295.51022      0              249.5963       511.21167     -0.54339218   
  62700000   312.2353       0              265.38968      541.81178     -0.46373238   
  62710000   299.17457      0              247.28639      512.14581     -0.97263929   
  62720000   327.47999      0              272.50937      562.4276       0.03739625   
  62730000   324.60526      0              250.45368      537.82691      0.003521713  
  62740000   277.04399      0              261.93787      507.20508      0.60411889   
  62750000   312.91846      0              247.39544      524.42234      1.5155211    
  62760000   294.34643      0              281.39901      541.98407      1.1472431    
  62770000   287.47797      0              257.10911      511.61352      0.25193913   
  62780000   306.58172      0              251.50696      522.92394     -1.3128685    
  62790000   299.58973      0              266.07151      531.29848      0.24014182   
  62800000   310.13421      0              266.88802      541.45002     -0.13440235   
  62810000   326.55759      0              280.92048      570.0221      -1.1630478    
  62820000   293.12418      0              257.33469      516.83769      0.84530974   
  62830000   311.00654      0              251.4808       526.81507     -0.12495771   
  62840000   300.15328      0              263.3104       529.03627      1.1759213    
  62850000   308.88357      0              246.26095      519.71576     -1.0410007    
  62860000   294.72895      0              260.88818      521.8119       0.58303611   
  62870000   296.01167      0              263.62318      525.68249     -0.37155179   
  62880000   300.17321      0              289.6543       555.39782     -0.17381136   
  62890000   331.55278      0              271.38691      564.91078     -0.4048082    
  62900000   302.20479      0              278.61652      546.1586      -0.84838371   
  62910000   334.2955       0              256.76637      552.71837      0.92790951   
  62920000   304.00087      0              265.15246      534.28461     -0.73812267   
  62930000   280.71774      0              263.47158      511.99116      0.81778282   
  62940000   293.03908      0              260.28142      519.70909      1.4019273    
  62950000   275.80608      0              234.3581       478.52938      0.68394681   
  62960000   323.71425      0              255.05395      541.63836     -2.0379885    
  62970000   283.16333      0              251.28039      501.96505      0.036344578  
  62980000   310.93597      0              280.18028      555.45207      1.5669491    
  62990000   305.55439      0              275.31474      545.82222     -1.0311422    
  63000000   303.75232      0              237.90512      506.81723      1.0068808    
  63010000   302.23587      0              272.71187      540.28146      0.86207556   
  63020000   287.83746      0              284.17281      538.99548      0.42466715   
  63030000   323.16337      0              259.37941      545.47613      0.11381927   
  63040000   273.81634      0              266.12885      508.53861     -0.30880437   
  63050000   331.97759      0              242.51         536.40995      0.95150063   
  63060000   322.37077      0              271.68875      557.08378     -0.29513584   
  63070000   308.19007      0              259.44288      532.28374      0.20687901   
  63080000   302.3805       0              275.08939      542.78703     -0.75173772   
  63090000   298.88233      0              277.45768      542.05839      2.366296     
  63100000   292.84886      0              261.83548      521.09475      0.57078239   
  63110000   290.97548      0              276.93377      534.53453     -0.59686231   
  63120000   326.93964      0              274.88932      564.32918      0.10744243   
  63130000   313.00371      0              250.68097      527.78334     -0.52077452   
  63140000   316.94803      0              278.09674      558.69101      1.9513017    
  63150000   335.1793       0              275.93102      572.66545     -1.8450795    
  63160000   301.81631      0              269.46882      536.66698      0.10322614   
  63170000   293.1318       0              265.45911      524.96886      0.54772782   
  63180000   282.30423      0              272.96309      522.88719     -0.041749131  
  63190000   300.30329      0              254.64332      520.502       -0.69721498   
  63200000   304.23771      0              239.10859      508.45042      1.1914984    
  63210000   293.96917      0              264.75061      525.00168      3.7341376    
  63220000   310.18124      0              253.20398      527.80761     -0.041936559  
  63230000   312.38054      0              266.45268      543.00336      0.82763883   
  63240000   309.9383       0              262.93939      537.32794      1.2691513    
  63250000   293.63196      0              262.59819      522.55074      2.3036423    
  63260000   289.53764      0              272.01111      528.33896      0.68670169   
  63270000   269.77716      0              267.27361      506.10749     -1.7480909    
  63280000   312.2861       0              232.86382      509.33089     -1.0343358    
  63290000   284.98789      0              258.06659      510.36653     -1.6019661    
  63300000   328.10889      0              265.27874      555.75373     -0.51002519   
  63310000   289.48404      0              273.0187       529.29909      0.65744137   
  63320000   293.21971      0              258.26291      517.85049     -0.26834495   
  63330000   283.58348      0              256.79667      507.85329      0.0092859771 
  63340000   297.91671      0              258.07808      521.82391     -0.21433992   
  63350000   275.90522      0              262.05212      506.31117      0.65865696   
  63360000   317.58978      0              243.49069      524.65311      1.4755709    
  63370000   288.81209      0              262.38778      518.07329      0.80666449   
  63380000   282.36412      0              249.92243      499.89955      0.23325126   
  63390000   288.95579      0              255.77047      511.5832      -0.90342113   
  63400000   286.56271      0              276.6998       530.39394     -0.90209249   
  63410000   303.88895      0              263.78003      532.8131       1.506109     
  63420000   308.71165      0              256.23339      529.53599     -1.7355741    
  63430000   315.58253      0              252.17413      531.55952     -0.48043706   
  63440000   306.14736      0              275.29043      546.32287     -1.0173003    
  63450000   288.62772      0              268.50441      524.02671      0.87712142   
  63460000   295.5558       0              256.71183      518.36756     -0.82453304   
  63470000   311.07189      0              257.45206      532.84418     -0.38774897   
  63480000   313.39402      0              263.29581      540.74372     -0.65377396   
  63490000   295.95092      0              262.05929      524.06481     -0.050412136  
  63500000   304.44971      0              275.24017      544.76967     -1.308055     
  63510000   299.09861      0              259.58872      524.38089     -0.45185651   
  63520000   308.78539      0              275.86535      549.23324     -0.73021129   
  63530000   281.19984      0              255.01902      503.9654      -0.52429923   
  63540000   298.03408      0              265.06991      528.91966     -0.38246303   
  63550000   290.21388      0              252.99441      509.92093     -1.1127832    
  63560000   292.38401      0              249.74121      508.58895      0.018088391  
  63570000   315.99018      0              262.10215      541.84844     -0.82941765   
  63580000   309.03493      0              226.45557      500.04437      0.19095481   
  63590000   302.31455      0              246.50586      514.14511      0.81844133   
  63600000   301.86651      0              262.04145      529.28405     -0.33318237   
  63610000   301.75855      0              265.58367      532.7307      -0.21724105   
  63620000   313.77376      0              268.74257      546.52666      1.0465885    
  63630000   282.53936      0              249.68727      499.81953     -1.1848059    
  63640000   313.14871      0              261.07418      538.30492     -0.75221377   
  63650000   299.55748      0              255.48229      520.6807       1.3136358    
  63660000   284.47128      0              262.51695      514.35954      0.83217804   
  63670000   328.28954      0              259.29125      549.92617     -0.0083872583 
  63680000   305.59274      0              265.28754      535.82898     -0.65111762   
  63690000   302.47346      0              272.00102      539.78095      0.79747877   
  63700000   288.90526      0              265.61565      521.38365     -1.663039     
  63710000   283.48616      0              260.38741      511.35787      0.52020507   
  63720000   274.04811      0              257.29616      499.91111     -0.40867224   
  63730000   293.74671      0              264.98013      525.03427     -1.523209     
  63740000   311.45971      0              264.23628      539.97174      0.11142982   
  63750000   274.13321      0              276.44311      519.1334      -0.034995272  
  63760000   293.22462      0              269.98664      529.57857     -0.021001962  
  63770000   288.96398      0              234.96535      490.78533     -0.015856818  
  63780000   303.02349      0              268.70039      536.96726     -0.049142346  
  63790000   307.35911      0              274.51294      546.61814     -0.60098281   
  63800000   299.7227       0              242.83242      508.1771      -1.5258617    
  63810000   291.95653      0              271.48342      529.95271      0.58178642   
  63820000   325.7125       0              262.97235      551.32581     -1.7571363    
  63830000   278.77125      0              251.06838      497.86473      0.057082389  
  63840000   301.35911      0              272.52654      539.31994     -1.0507122    
  63850000   295.85442      0              246.57464      508.49473      0.1451782    
  63860000   292.21687      0              268.48893      527.1887      -0.17286869   
  63870000   276.69091      0              239.37747      484.3321       0.38412757   
  63880000   317.07419      0              259.91024      540.6162      -0.76643409   
  63890000   301.65707      0              261.8778       528.93498     -1.375062     
  63900000   301.29527      0              247.75951      514.49639     -0.096480903  
  63910000   305.3117       0              263.95742      534.25005      0.0053079294 
  63920000   313.45155      0              258.08374      535.58258      0.94443182   
  63930000   286.57455      0              277.9717       531.67631      0.18211994   
  63940000   296.41141      0              264.78406      527.19726     -0.9391416    
  63950000   298.92216      0              258.08434      522.7203      -1.2515159    
  63960000   303.43213      0              249.90681      518.53545      0.35886983   
  63970000   308.72739      0              274.8163       548.13284      0.6317993    
  63980000   310.43738      0              252.42079      527.25118     -0.55507222   
  63990000   309.56271      0              275.47497      549.53102      0.28844228   
  64000000   312.97095      0              255.86524      532.9386       0.74582697   
  64010000   293.54241      0              240.94629      500.81956      0.53046157   
  64020000   293.62071      0              273.9803       533.92289      0.42679156   
  64030000   300.39048      0              264.84441      530.78027      1.1379454    
  64040000   328.00763      0              269.61438      559.99973     -1.9058273    
  64050000   300.11687      0              287.54926      553.2429       0.89883221   
  64060000   328.60001      0              284.41489      575.32468     -0.42052762   
  64070000   311.7051       0              257.32428      533.27699     -0.6409939    
  64080000   264.47633      0              267.44221      501.58326      0.93362124   
  64090000   299.15513      0              269.79262      534.63483     -0.40071601   
  64100000   318.64177      0              266.47691      548.57066     -0.33634385   
  64110000   283.05004      0              257.19354      507.77791     -1.6464663    
  64120000   300.60939      0              254.2138       520.34346     -0.049160303  
  64130000   313.68576      0              252.14352      529.8497      -0.98576162   
  64140000   286.89019      0              249.95253      503.93659      0.47776752   
  64150000   299.57521      0              284.81139      550.0255      -0.76377281   
  64160000   305.14404      0              251.14972      521.29392     -0.65186847   
  64170000   309.66343      0              266.16694      540.31215     -0.35353209   
  64180000   320.10733      0              242.09042      525.48163     -0.47304911   
  64190000   293.77877      0              266.99558      527.0781       0.36560762   
  64200000   291.39041      0              265.2787       523.2468       1.8905414    
  64210000   309.30554      0              266.71582      540.5442       1.4325622    
  64220000   297.48035      0              255.11983      518.47936     -0.11425857   
  64230000   279.26511      0              269.18573      516.4193      -0.14596402   
  64240000   313.01253      0              249.81271      526.92288     -0.95063006   
  64250000   293.81925      0              265.89202      526.01038      0.59271919   
  64260000   306.62607      0              246.9179       518.37413      0.17827598   
  64270000   294.14299      0              262.85729      523.26225     -2.3026084    
  64280000   304.88251      0              242.99766      512.91032      0.8320825    
  64290000   294.15186      0              280.6494       541.06221     -0.24823107   
  64300000   291.96273      0              272.34043      530.8152       0.34846299   
  64310000   301.00949      0              254.05526      520.53914      0.023773494  
  64320000   298.47485      0              291.05537      555.29533      0.33765509   
  64330000   281.03682      0              274.70291      523.50497      1.0331893    
  64340000   327.59391      0              275.35396      565.37304     -0.33927997   
  64350000   280.22214      0              252.62109      500.70191     -0.20850009   
  64360000   301.59899      0              266.46383      533.46959      0.85127354   
  64370000   300.10636      0              255.15959      520.84392     -2.3390602    
  64380000   283.9291       0              275.3595       526.7221      -0.25024686   
  64390000   292.67432      0              265.76121      524.86596      0.8753837    
  64400000   293.14492      0              256.85861      516.37999     -1.6190661    
  64410000   298.96644      0              266.97877      531.65393      0.19803056   
  64420000   294.03618      0              259.4406       519.751       -0.74750737   
  64430000   322.23549      0              252.93186      538.20712      1.405496     
  64440000   297.02535      0              277.94312      540.89983      0.75775253   
  64450000   319.92015      0              263.25811      546.4836       1.4634854    
  64460000   287.59558      0              263.48199      518.09053      0.025720105  
  64470000   310.01192      0              261.01059      535.46432      0.92247663   
  64480000   301.26539      0              263.19101      529.90144      1.0395226    
  64490000   306.17624      0              250.27592      521.33393      0.13404504   
  64500000   286.13288      0              265.26416      518.57777      0.07876773   
  64510000   303.872        0              255.37417      524.39224     -0.38237082   
  64520000   313.04662      0              275.09856      552.23892     -0.72450548   
  64530000   311.21916      0              283.87084      559.39335      0.80392592   
  64540000   290.43139      0              261.39098      518.51006     -0.22948171   
  64550000   298.04093      0              267.08139      530.9372      -0.48410487   
  64560000   311.5414       0              261.68079      537.48857     -0.075942421  
  64570000   306.55072      0              241.01477      512.4043       1.3848076    
  64580000   306.74032      0              274.55467      546.11205      0.91309943   
  64590000   324.88758      0              243.78818      531.41134      0.71819575   
  64600000   290.69658      0              277.30307      534.65693      0.32934341   
  64610000   296.29019      0              264.09032      526.39619      2.4357685    
  64620000   311.11183      0              253.98317      529.41065      0.17953413   
  64630000   301.25248      0              271.61157      538.31057      1.8590825    
  64640000   288.85212      0              289.31913      545.04008      1.984666     
  64650000   271.34213      0              259.22902      499.44837      0.24565518   
  64660000   313.69906      0              265.51158      543.22954     -1.1434821    
  64670000   301.57707      0              262.69255      529.67891      0.031509389  
  64680000   286.88388      0              285.24128      539.21974     -0.42380053   
  64690000   305.43134      0              265.05018      535.44873      1.0743043    
  64700000   286.78089      0              254.69942      508.5867       1.5127244    
  64710000   263.21604      0              249.00503      482.03034     -0.11769963   
  64720000   299.82144      0              258.45005      523.88215      0.2553264    
  64730000   304.77993      0              256.48861      526.31046      0.67277071   
  64740000   298.87567      0              260.63156      525.22637      0.44987962   
  64750000   273.93194      0              250.61139      493.1235       1.0278515    
  64760000   309.14422      0              273.3357       547.02126     -2.871987     
  64770000   287.62618      0              278.84352      533.47915     -0.40189309   
  64780000   292.16176      0              254.57683      513.22781      1.3818928    
  64790000   309.50289      0              281.80842      555.81151     -1.0832608    
  64800000   292.35965      0              281.8957       540.72187      0.88423725   
  64810000   292.45317      0              262.65057      521.55953      0.22743632   
  64820000   296.49371      0              263.99829      526.48434      0.55967758   
  64830000   280.73523      0              248.98749      497.52256      0.43116807   
  64840000   290.15684      0              268.15456      525.03058      0.88704654   
  64850000   288.98452      0              259.88557      515.72373      0.29721801   
  64860000   307.81917      0              258.82491      531.3374       0.57189062   
  64870000   315.85131      0              257.09876      536.72212      2.0602842    
  64880000   301.20688      0              270.58652      537.24515     -1.4239097    
  64890000   285.84325      0              278.96816      532.02535      0.34895772   
  64900000   313.09571      0              257.53534      534.71916      0.29771255   
  64910000   287.84146      0              248.26781      503.09402      0.57406178   
  64920000   306.24088      0              249.8141       520.92934     -0.78497765   
  64930000   315.85013      0              272.59367      552.21597      0.12521213   
  64940000   307.95512      0              263.42114      536.05399      1.1500849    
  64950000   279.59373      0              274.91731      522.4418       0.71519271   
  64960000   280.38401      0              274.265        522.48913      0.45815465   
  64970000   330.96163      0              269.30089      562.30141     -0.0068273638 
  64980000   305.32444      0              240.99886      511.30277      0.76165649   
  64990000   313.34073      0              245.82042      523.22115     -0.10220389   
  65000000   286.67803      0              252.79097      506.58719      0.52127357   
  65010000   291.3344       0              257.86211      515.78062     -0.87993194   
  65020000   309.24003      0              275.46601      549.23639      0.77662746   
  65030000   303.90762      0              265.94725      534.99684      0.89699804   
  65040000   295.99353      0              290.58402      552.62726      1.4514538    
  65050000   290.71407      0              259.4736       516.84293      1.2802856    
  65060000   300.3063       0              265.77146      531.63281     -0.20884335   
  65070000   307.71752      0              266.12406      538.54656     -1.3581097    
  65080000   325.20143      0              262.3607       550.26171     -0.14772894   
  65090000   317.93441      0              286.34491      567.81243      0.45377739   
  65100000   289.29317      0              252.94222      509.05364      0.74749695   
  65110000   289.84109      0              253.82057      510.41705      0.45287337   
  65120000   293.11083      0              282.22253      541.71372      0.48064776   
  65130000   301.70688      0              255.34232      522.44359     -0.63660256   
  65140000   327.46021      0              267.60595      557.50666     -0.0048827742 
  65150000   298.64214      0              295.14986      559.53792     -2.0275351    
  65160000   316.01234      0              262.97571      542.74162     -1.2674794    
  65170000   318.48459      0              286.33678      568.29138      0.052070693  
  65180000   300.23816      0              252.98841      518.78943     -1.34087      
  65190000   285.53867      0              253.4709       506.25845      1.7283315    
  65200000   302.83548      0              283.34268      551.44311     -2.5679207    
  65210000   324.40746      0              246.70286      533.90098      0.38686946   
  65220000   311.80901      0              255.00808      531.05277     -0.64161827   
  65230000   290.51789      0              244.0875       501.28316     -0.27113848   
  65240000   299.67776      0              259.7353       525.0402      -0.59503679   
  65250000   290.49584      0              266.82136      523.99749     -0.3863803    
  65260000   298.43445      0              263.31151      527.51571     -0.92936419   
  65270000   297.25158      0              245.56858      508.72558     -1.2376398    
  65280000   290.56323      0              259.63988      516.87567      0.116999     
  65290000   305.02007      0              266.48551      536.51996      0.72876752   
  65300000   322.87147      0              248.88069      534.71899     -0.79528455   
  65310000   272.40995      0              263.65715      504.82184     -1.1630938    
  65320000   298.96665      0              267.15091      531.82626     -0.16396029   
  65330000   302.57823      0              295.74647      563.61915     -0.52328793   
  65340000   286.00662      0              271.51259      524.71442     -1.5139445    
  65350000   277.82478      0              259.99096      505.9494       1.3374193    
  65360000   318.81342      0              277.53517      559.78087     -0.013163347  
  65370000   304.99071      0              272.82955      542.83801      0.5048782    
  65380000   287.97184      0              249.96615      504.90778      0.81673317   
  65390000   302.61871      0              265.8024       533.71092     -0.28632252   
  65400000   301.22112      0              250.59937      517.2706      -0.083733296  
  65410000   311.28936      0              270.83766      546.42231      1.5899252    
  65420000   298.24961      0              252.28256      516.32311     -0.9646463    
  65430000   278.65704      0              264.6185       511.31374      0.17810693   
  65440000   288.66736      0              266.33281      521.89019      0.063720844  
  65450000   300.7916       0              278.31689      544.60787     -0.22614741   
  65460000   303.01282      0              273.21497      541.4724      -0.69293639   
  65470000   300.56852      0              240.73767      506.83116      1.2355784    
  65480000   303.70488      0              274.06096      542.93107      0.42667233   
  65490000   309.97559      0              265.31642      539.73798     -0.61970867   
  65500000   304.96154      0              253.59187      523.5745       0.72302208   
  65510000   304.01072      0              272.38761      541.52848     -0.33692462   
  65520000   313.80414      0              262.68634      540.49733     -0.50812408   
  65530000   290.64238      0              264.74686      522.05273      1.896686     
  65540000   300.28452      0              284.2092       550.05126      0.4050751    
  65550000   310.91626      0              263.27236      538.5267       1.1548098    
  65560000   293.91825      0              261.53766      521.74366      0.08547201   
  65570000   279.69847      0              253.71293      501.33015      1.7935732    
  65580000   287.61822      0              265.91307      520.54164      2.4797746    
  65590000   300.48414      0              223.23696      489.25575     -2.176886     
  65600000   314.99932      0              271.26788      550.13696     -0.76128274   
  65610000   310.41143      0              256.94158      531.74899     -0.83590449   
  65620000   292.74583      0              247.03276      506.20081      0.39759317   
  65630000   283.36763      0              255.3526       506.21813      1.3567422    
  65640000   308.4585       0              271.05517      544.13366     -0.23837412   
  65650000   305.44897      0              254.37468      524.78883      0.63325492   
  65660000   321.05242      0              256.39679      540.62469     -0.90921521   
  65670000   286.53301      0              287.97298      541.64082     -0.14036489   
  65680000   291.15294      0              285.29305      543.05091     -0.81054387   
  65690000   287.9539       0              267.97857      522.90432      0.54259285   
  65700000   304.80478      0              247.06479      516.90865      0.77473798   
  65710000   289.48256      0              265.41853      521.6976      -1.1004289    
  65720000   325.02951      0              271.53172      559.28053     -0.86577018   
  65730000   290.00909      0              256.2452       512.99041     -0.020592737  
  65740000   298.02659      0              253.20923      517.05234      1.5937643    
  65750000   292.16943      0              271.60617      530.26394     -0.43889034   
  65760000   274.18208      0              259.44036      502.17392     -0.54643457   
  65770000   300.99223      0              267.21018      533.67878     -0.081235237  
  65780000   309.76352      0              274.9047       549.13853     -1.6140744    
  65790000   296.64752      0              263.09435      525.71657      0.27875812   
  65800000   326.67323      0              263.96711      553.17111     -1.1058296    
  65810000   307.95458      0              264.6057       537.23807     -1.0045908    
  65820000   313.49588      0              255.96884      533.50693      0.79130416   
  65830000   317.60236      0              269.63935      550.8129      -0.59683169   
  65840000   300.49006      0              270.08182      536.10585      0.40698915   
  65850000   287.52552      0              244.76936      499.31587      0.72474616   
  65860000   309.21441      0              238.82034      512.56804     -1.1155546    
  65870000   295.52593      0              262.60453      524.23381     -0.51956196   
  65880000   303.72639      0              258.77942      527.66857      1.3000946    
  65890000   287.19088      0              278.90121      533.15146     -1.6589315    
  65900000   309.59108      0              267.67571      541.75688     -0.08036927   
  65910000   308.43289      0              256.37         529.42582     -1.7297202    
  65920000   301.46531      0              257.47266      524.36008      0.82069629   
  65930000   312.98641      0              277.54773      554.63479      0.49650238   
  65940000   299.76789      0              269.19624      534.58093      0.66818835   
  65950000   320.97446      0              280.01398      564.17286      1.2760479    
  65960000   298.34208      0              250.91619      515.03861     -0.96687884   
  65970000   284.86687      0              283.99044      536.18325      0.25153556   
  65980000   296.6457       0              272.059        534.67962     -0.53272846   
  65990000   305.57896      0              251.55671      522.08595      0.50130778   
  66000000   308.77038      0              259.38149      532.73608      1.157733     
  66010000   313.7498       0              291.36827      569.13115      0.38052173   
  66020000   288.67174      0              256.76958      512.33084     -1.2894835    
  66030000   289.52588      0              245.86787      502.1853      -0.50067353   
  66040000   302.69051      0              256.11803      524.09011      2.5243209    
  66050000   318.40602      0              262.66778      544.55282     -0.58535254   
  66060000   317.12576      0              251.33342      532.08505      1.4642505    
  66070000   308.23287      0              259.17303      532.05177     -0.72520988   
  66080000   306.88261      0              254.90198      526.58534      0.011437594  
  66090000   288.92911      0              241.22191      497.01102     -1.0174248    
  66100000   307.12099      0              252.55981      524.45421      0.98025795   
  66110000   290.02549      0              268.707        525.46673     -1.8909334    
  66120000   305.29153      0              263.96426      534.23903     -1.1630715    
  66130000   284.37149      0              270.34825      522.1025       1.8535204    
  66140000   283.41358      0              254.12784      505.03405      0.72689713   
  66150000   324.5782       0              266.68704      554.03631      1.3653744    
  66160000   297.79719      0              281.55425      545.19428     -0.36289046   
  66170000   311.86695      0              262.94912      539.04511      0.79849845   
  66180000   290.80032      0              276.87257      534.31827      1.5841235    
  66190000   284.66835      0              296.74655      548.76361     -1.6775521    
  66200000   294.54557      0              252.64114      513.4025      -0.036938131  
  66210000   319.43059      0              263.88606      546.67815      0.61340984   
  66220000   296.55602      0              257.55178      520.093       -0.58141066   
  66230000   304.30047      0              282.77848      552.17586      0.13026185   
  66240000   285.68023      0              253.32962      506.24249     -1.1289018    
  66250000   318.58645      0              260.36994      542.41471     -0.1191778    
  66260000   328.73631      0              265.43177      556.46221      0.72856703   
  66270000   298.33402      0              259.41084      523.52612      0.011420448  
  66280000   308.22726      0              248.72924      521.60301     -0.19427452   
  66290000   299.63488      0              245.85179      511.11873      1.0498349    
  66300000   291.01888      0              249.01482      506.65401      0.99313736   
  66310000   308.07859      0              302.41105      575.15321      0.13921877   
  66320000   304.73385      0              253.56454      523.34559      0.79069658   
  66330000   298.27869      0              237.59472      501.66102      0.2224701    
  66340000   307.16045      0              232.72464      504.65397      0.20259673   
  66350000   275.4764       0              285.3537       529.23311      1.0419218    
  66360000   312.69759      0              275.6171       552.44846     -1.7068772    
  66370000   302.21211      0              268.46137      536.00993     -1.3215957    
  66380000   295.19382      0              250.29549      511.63075     -1.23815      
  66390000   276.06426      0              261.61997      506.01982     -0.31212022   
  66400000   297.80834      0              257.14868      520.79858      1.4715744    
  66410000   325.76329      0              257.06769      545.46612      0.8614613    
  66420000   293.66751      0              267.51469      527.49871      0.49725356   
  66430000   295.41053      0              258.862        520.38911      0.59944263   
  66440000   277.02755      0              242.42679      487.67944     -0.71516128   
  66450000   291.2126       0              260.37833      518.18901      1.070636     
  66460000   305.00941      0              267.90361      537.92861      0.86381274   
  66470000   290.46645      0              272.65679      529.80691      0.75041442   
  66480000   309.53248      0              264.89392      538.92321     -0.25055099   
  66490000   321.48401      0              249.343        533.95298      0.73808692   
  66500000   291.85511      0              275.18346      533.56296      0.23327819   
  66510000   301.50228      0              247.95372      514.87387      0.20172651   
  66520000   277.55496      0              249.07043      494.79         0.30435341   
  66530000   308.47691      0              275.67963      548.77442      0.2831406    
  66540000   297.45637      0              263.13009      526.46838      0.17650042   
  66550000   290.26683      0              252.61828      509.59167      0.016108475  
  66560000   278.52929      0              276.11685      522.69899      0.32501121   
  66570000   327.86595      0              267.40706      557.66698      1.460599     
  66580000   291.30076      0              244.47794      502.36668     -1.2067623    
  66590000   274.87543      0              249.93033      493.27771     -2.3730717    
  66600000   307.72196      0              263.32188      535.7483      -0.026670408  
  66610000   285.41713      0              269.1897       521.86965     -1.3911751    
  66620000   303.10011      0              282.87503      551.20973     -0.5269095    
  66630000   303.15488      0              253.06701      521.4502      -0.66630028   
  66640000   299.81587      0              264.96356      530.39072      0.91630198   
  66650000   278.90165      0              267.74043      514.65222      0.84917468   
  66660000   306.09785      0              264.76919      535.75779     -0.88668381   
  66670000   292.68297      0              266.36182      525.47422     -0.030785964  
  66680000   318.37415      0              252.01886      533.87568      0.48878002   
  66690000   276.60435      0              255.07164      499.94963      0.17895986   
  66700000   292.23596      0              260.42525      519.14191     -0.30848077   
  66710000   296.63         0              275.06156      537.66828     -2.0845846    
  66720000   310.32498      0              234.27982      509.01071      0.89665292   
  66730000   300.21359      0              265.06996      530.84923      1.7323326    
  66740000   321.04124      0              237.32969      521.54769      2.2803338    
  66750000   300.34537      0              279.23702      545.13296      1.0398542    
  66760000   294.9938       0              256.62865      517.78683      0.35145396   
  66770000   308.62746      0              251.32137      524.54944      1.0337217    
  66780000   310.74241      0              259.86754      534.96797     -0.55752066   
  66790000   313.01713      0              258.64043      535.75467      1.3343791    
  66800000   286.24177      0              252.23309      505.64309      0.38014604   
  66810000   286.86329      0              254.57652      508.53676     -0.11794478   
  66820000   286.62565      0              252.50628      506.25613     -0.70677373   
  66830000   318.6774       0              266.59408      548.71936     -0.12000881   
  66840000   306.66699      0              271.98073      543.4732      -0.31286165   
  66850000   308.88912      0              288.04001      561.49973      0.18663549   
  66860000   288.41813      0              276.2767       531.61344      0.35572169   
  66870000   314.41683      0              259.63387      537.98727      0.74111937   
  66880000   293.4295       0              252.59603      512.36934      1.5302445    
  66890000   293.03671      0              255.54966      514.97523     -2.1921292    
  66900000   292.85579      0              235.15625      494.42165      1.5964351    
  66910000   300.01738      0              283.82154      549.4271       1.085762     
  66920000   294.03885      0              260.351        520.66377      0.41026707   
  66930000   299.67575      0              276.92358      542.2267      -0.2713625    
  66940000   305.49258      0              277.94324      548.396        2.1861872    
  66950000   317.44827      0              272.79769      553.83482      2.281435     
  66960000   312.07507      0              277.37181      553.65205     -1.9726556    
  66970000   293.77081      0              246.61259      506.68806      1.1296657    
  66980000   288.20743      0              246.65831      501.80852      0.49113557   
  66990000   274.91368      0              271.94273      515.32397      0.76197806   
  67000000   300.40694      0              269.10631      535.05675      2.0728066    
  67010000   309.388        0              289.78679      563.68817     -1.353389     
  67020000   287.21121      0              245.04285      499.3111       0.88350338   
  67030000   292.68966      0              277.89031      537.00864     -0.19868828   
  67040000   282.34662      0              261.78543      511.74706     -0.80229983   
  67050000   289.08746      0              285.45613      541.38542      1.8194474    
  67060000   321.01948      0              261.24243      545.44116     -0.61877064   
  67070000   321.27686      0              261.28117      545.70776      1.0660735    
  67080000   296.41636      0              262.53536      524.95293     -0.21823663   
  67090000   292.2305       0              263.14918      521.86102     -0.45183673   
  67100000   302.97878      0              285.88211      554.10941     -0.457246     
  67110000   300.93048      0              255.94125      522.35518      0.99237339   
  67120000   304.98451      0              250.49315      520.49612      0.69614419   
  67130000   273.47165      0              251.19504      493.29966     -1.0130678    
  67140000   291.53036      0              265.4          523.49199     -0.0033010901 
  67150000   307.5722       0              259.0284       531.32224      0.10997063   
  67160000   301.60275      0              256.6361       523.6452       1.3618653    
  67170000   294.35341      0              264.49978      525.09102      0.62197557   
  67180000   301.12358      0              254.79717      521.38205     -0.24815167   
  67190000   323.67525      0              271.60641      558.1563      -0.011862546  
  67200000   290.83357      0              258.93045      516.40558     -0.18564826   
  67210000   305.01543      0              282.55191      552.58225     -0.18021518   
  67220000   318.23018      0              257.67864      539.408        1.8361343    
  67230000   305.12962      0              266.83082      536.96225      0.032122283  
  67240000   287.09574      0              250.30439      504.47042     -2.0897135    
  67250000   270.4574       0              278.54275      517.97885     -1.0195563    
  67260000   300.30941      0              260.93589      526.79998      1.3696611    
  67270000   309.01401      0              287.02156      560.59184      1.1521462    
  67280000   297.81208      0              254.69923      518.35244     -1.1223592    
  67290000   290.79833      0              268.08833      525.53225      0.96654991   
  67300000   288.4557       0              277.89002      533.26002      0.053874961  
  67310000   310.98053      0              268.16289      543.47413     -0.18027472   
  67320000   321.79162      0              283.17941      568.06172     -1.2073969    
  67330000   296.76226      0              262.9554       525.6792       0.32805299   
  67340000   266.69693      0              273.40631      509.51326      0.52756033   
  67350000   311.64345      0              246.02677      521.92489     -0.49124683   
  67360000   321.28576      0              262.91764      547.35211      0.29233894   
  67370000   302.90453      0              275.64673      543.80828     -1.0167594    
  67380000   297.96211      0              244.61932      508.40536      0.99250303   
  67390000   314.78242      0              265.12878      543.80585     -1.5513202    
  67400000   303.74718      0              271.74633      540.65389      0.027985559  
  67410000   316.44578      0              276.90514      557.05478      0.44292682   
  67420000   294.1024       0              256.09032      516.45934      1.1136045    
  67430000   314.44706      0              284.57745      562.95762      1.6082457    
  67440000   318.77576      0              276.51474      558.72711      0.13698053   
  67450000   313.41385      0              251.48328      528.94874      0.1170624    
  67460000   316.21372      0              277.85719      557.80138     -0.93420887   
  67470000   285.34778      0              237.46518      490.08374     -0.84914648   
  67480000   277.33735      0              268.56335      514.09027      0.98902143   
  67490000   312.84258      0              257.19043      534.15015      1.3112382    
  67500000   315.71731      0              242.66093      522.16564      0.33030151   
  67510000   313.49075      0              269.96025      547.4938      -0.35504537   
  67520000   308.27321      0              265.71978      538.63423     -0.25783921   
  67530000   316.30802      0              258.72831      538.75599      0.43813169   
  67540000   323.04507      0              268.62515      554.61714      0.95576808   
  67550000   295.9679       0              269.9692       531.98975     -0.62890747   
  67560000   294.79208      0              236.95061      497.93021      1.9360272    
  67570000   279.70417      0              257.76528      505.38754     -0.75545246   
  67580000   327.86234      0              276.64487      566.9016       0.10047808   
  67590000   295.55473      0              255.49808      517.15286      0.64697009   
  67600000   301.17052      0              249.52704      516.15348     -0.6074946    
  67610000   291.4905       0              243.04879      501.1055       0.40673372   
  67620000   298.207        0              240.84212      504.84495     -1.6047508    
  67630000   295.49149      0              250.00687      511.60566      1.117461     
  67640000   302.93384      0              246.9216       515.1091      -2.3308976    
  67650000   332.35548      0              259.06959      553.30409      1.1524584    
  67660000   292.70143      0              271.93841      531.06715      0.022506938  
  67670000   304.21581      0              270.38976      539.71219     -0.67532764   
  67680000   298.25809      0              296.08846      560.13652      0.28815724   
  67690000   297.82295      0              246.69939      510.36222     -0.20691694   
  67700000   308.08425      0              235.31507      508.06224     -0.2585125    
  67710000   296.28594      0              269.97624      532.27836      0.70111924   
  67720000   292.29687      0              266.26882      525.03941     -1.4035904    
  67730000   300.83213      0              270.28259      536.60945      0.65628732   
  67740000   327.89238      0              259.21024      549.49356      0.61818179   
  67750000   317.97996      0              277.99572      559.50357     -0.66758524   
  67760000   302.82669      0              269.09567      537.18831     -0.18330793   
  67770000   334.25802      0              238.70774      534.62657     -0.93699692   
  67780000   312.58606      0              246.73408      523.4667       1.3336199    
  67790000   297.43154      0              251.44971      514.76602     -0.15433773   
  67800000   298.80103      0              239.47582      504.00454     -0.71359778   
  67810000   300.98057      0              276.26031      542.71858      0.76615374   
  67820000   285.60424      0              279.9621       532.8077       0.79697486   
  67830000   310.71741      0              265.08528      540.16359     -0.5380925    
  67840000   320.25852      0              263.93164      547.4567       1.6452527    
  67850000   275.0974       0              255.68904      499.23293     -0.92351816   
  67860000   311.23322      0              272.23789      547.77285      0.67607143   
  67870000   299.2801       0              265.15757      530.11041     -0.43881911   
  67880000   302.92636      0              261.71661      529.89749      1.2325574    
  67890000   299.14727      0              255.47542      520.31067      0.78614801   
  67900000   316.10169      0              272.46372      552.30873      0.23659503   
  67910000   301.06056      0              277.24074      543.76983     -1.7554405    
  67920000   299.22357      0              263.13163      528.03444      2.1680456    
  67930000   302.96505      0              245.7254       513.94054      1.1550915    
  67940000   293.89396      0              257.71109      517.89558     -0.81811199   
  67950000   287.43371      0              250.09477      504.56        -0.3854553    
  67960000   290.16499      0              278.05293      534.93616      0.29733922   
  67970000   293.58587      0              269.83838      529.75013     -1.3823752    
  67980000   310.71417      0              244.33121      519.40664     -0.90883226   
  67990000   287.50421      0              267.88455      522.4122       0.09977737   
  68000000   286.20812      0              267.81025      521.19047     -1.4111617    
  68010000   298.1224       0              260.35866      524.28659     -0.82900773   
  68020000   319.34426      0              262.89573      545.61139     -1.306829     
  68030000   287.88617      0              280.59368      535.45948     -0.54373203   
  68040000   293.98356      0              278.31222      538.57603     -0.95790607   
  68050000   291.01576      0              267.46757      525.10399     -0.17178904   
  68060000   296.62866      0              264.83835      527.44388      0.42866143   
  68070000   299.5911       0              285.2052       550.43338      0.34301483   
  68080000   304.33707      0              263.93795      533.36773      0.82094467   
  68090000   296.37235      0              258.00293      520.38154     -0.92241198   
  68100000   280.85881      0              256.9586       505.60307      0.46753268   
  68110000   298.5215       0              254.29233      518.57359      0.55382517   
  68120000   324.67433      0              245.88206      533.31643     -0.16124606   
  68130000   303.03031      0              254.14904      522.42196      1.3956172    
  68140000   306.09321      0              265.74572      536.73021      1.1360937    
  68150000   285.49867      0              270.67471      523.42685     -1.0898331    
  68160000   315.99938      0              277.80527      557.55971     -0.10348328   
  68170000   301.89355      0              273.42566      540.69219      0.08379067   
  68180000   297.01198      0              272.55725      535.50213     -0.99063563   
  68190000   286.42477      0              254.51006      508.08208      0.005046747  
  68200000   292.38715      0              282.13773      540.98824     -0.22910713   
  68210000   302.74895      0              254.6852       522.70902      0.084056674  
  68220000   289.85405      0              247.84375      504.4517       1.2493715    
  68230000   299.55176      0              245.12368      510.31702     -0.70934781   
  68240000   277.26667      0              280.41092      525.87527     -1.2268333    
  68250000   298.82818      0              264.44057      528.99334      0.65871421   
  68260000   290.87381      0              269.60508      527.11583      1.3118294    
  68270000   309.36466      0              275.55149      549.43221      0.39615974   
  68280000   317.75927      0              254.00772      535.32019      1.4454493    
  68290000   304.14428      0              251.64466      520.90378      0.17079627   
  68300000   295.14784      0              264.21489      525.50944      0.1727813    
  68310000   340.57952      0              239.89673      541.41198      0.82224905   
  68320000   287.1457       0              272.36899      526.57925     -2.5829768    
  68330000   283.62742      0              256.66157      507.75709      0.24439661   
  68340000   293.7011       0              262.69776      522.71151      1.3727118    
  68350000   307.0266       0              263.44024      535.25108     -1.9180074    
  68360000   322.0861       0              254.60974      539.75275     -0.54328326   
  68370000   281.21419      0              258.59719      507.55627     -0.97850405   
  68380000   324.2827       0              255.33348      542.42114     -2.1925949    
  68390000   298.63751      0              259.15232      523.53628     -0.10473479   
  68400000   300.60641      0              283.61378      549.74081     -0.31101871   
  68410000   287.73901      0              271.54547      526.28098     -0.027417393  
  68420000   267.48484      0              237.23465      474.03913      0.35092163   
  68430000   287.08263      0              247.06433      501.21875      0.93614985   
  68440000   274.56955      0              237.90977      480.98635      0.96077613   
  68450000   324.96746      0              272.22887      559.92274     -1.4295658    
  68460000   303.96739      0              257.57134      526.67385     -0.19516162   
  68470000   319.33651      0              253.89438      536.60318      0.39344705   
  68480000   312.49387      0              245.73567      522.38667      0.55577219   
  68490000   295.296        0              255.57495      517.00067      0.062170913  
  68500000   308.83832      0              266.23547      539.65022      0.76908174   
  68510000   314.81194      0              268.59931      547.30251     -0.66355627   
  68520000   304.17949      0              278.23602      547.5263      -1.0802685    
  68530000   310.34769      0              249.49953      524.25052      0.37631043   
  68540000   295.38541      0              275.59623      537.1011      -1.2091175    
  68550000   298.05433      0              255.81072      519.6784       1.8062405    
  68560000   303.61512      0              264.02262      532.81327     -0.49355317   
  68570000   308.02488      0              283.78022      556.47483     -0.85969279   
  68580000   289.41849      0              270.65525      526.8776       0.46487152   
  68590000   321.766        0              261.6534       546.51303     -0.11348351   
  68600000   310.40455      0              266.85057      541.6519      -0.59853184   
  68610000   296.40566      0              257.80317      520.21128     -0.81997754   
  68620000   288.24574      0              258.52079      513.70491      0.22140791   
  68630000   297.23869      0              256.76015      519.90574      0.73363925   
  68640000   309.99927      0              265.15473      539.59727     -0.69831739   
  68650000   337.10171      0              284.05722      582.49356      0.30215066   
  68660000   322.8412       0              258.47968      544.29118      1.2833099    
  68670000   334.33104      0              261.51277      557.49624     -0.30007084   
  68680000   277.81929      0              267.54278      513.49636     -1.4575562    
  68690000   308.16931      0              278.68276      551.50524     -1.3131268    
  68700000   308.77095      0              261.66914      535.02424     -0.55297811   
  68710000   307.43981      0              271.69995      543.87659      0.63956214   
  68720000   294.41013      0              257.41216      518.05362      0.89892307   
  68730000   285.8399       0              270.31807      523.3723      -1.339851     
  68740000   297.72809      0              243.43164      507.01049      1.6753235    
  68750000   289.60498      0              250.8674       507.25486     -0.58024431   
  68760000   307.23619      0              282.33963      554.33601     -0.63784867   
  68770000   304.86862      0              252.33541      522.23577      0.3327919    
  68780000   303.38507      0              264.83467      533.42165      0.067688544  
  68790000   309.39334      0              247.98548      521.89158      1.4554131    
  68800000   305.81409      0              275.45749      546.19489     -0.8842769    
  68810000   286.06762      0              256.88612      510.14195      1.0377932    
  68820000   296.13137      0              243.76988      505.93516     -1.6981902    
  68830000   274.63703      0              258.41666      501.55298      0.86624996   
  68840000   308.17919      0              261.54834      534.37956      0.99910947   
  68850000   268.25803      0              268.52186      506.01085     -1.1232278    
  68860000   283.85056      0              259.27103      510.5641       0.54232625   
  68870000   309.08076      0              263.84816      537.47753     -0.022977233  
  68880000   296.23937      0              274.84581      537.10669      1.1563256    
  68890000   324.8063       0              253.06163      540.61284      0.76201143   
  68900000   306.27006      0              298.86322      570.00428     -0.3414357    
  68910000   320.1415       0              279.14262      562.56408      1.1588836    
  68920000   275.69887      0              252.67822      496.75459      0.67660913   
  68930000   286.97055      0              246.2179       500.2731      -0.9321099    
  68940000   313.97632      0              261.13442      539.09784      0.39228304   
  68950000   295.07251      0              262.57579      523.80365      1.0305986    
  68960000   311.92713      0              250.48835      526.63762     -0.64332584   
  68970000   294.66209      0              280.75553      541.62006      1.0490527    
  68980000   336.56095      0              259.99442      557.95203     -0.30730985   
  68990000   300.91149      0              275.08977      541.48689      1.544141     
  69000000   312.23314      0              275.36202      551.78219     -1.1566387    
  69010000   296.22239      0              273.90065      536.1465      -0.72012631   
  69020000   278.57057      0              249.14641      495.7651      -2.0685745    
  69030000   297.04253      0              252.96988      515.9418       0.028260939  
  69040000   313.55304      0              300.21692      577.8056      -1.3240184    
  69050000   305.03522      0              260.79616      530.84402     -0.85941535   
  69060000   302.90232      0              276.26608      544.42568     -0.7026011    
  69070000   291.81525      0              280.97229      539.3165      -0.52093941   
  69080000   320.13657      0              280.90406      564.32115      1.3424037    
  69090000   295.07662      0              264.0349       525.26641      0.55056753   
  69100000   275.97915      0              277.20421      521.52871     -0.48769283   
  69110000   330.20559      0              274.99335      567.32455     -0.3796429    
  69120000   299.1617       0              280.98599      545.83403     -3.3985092    
  69130000   285.44751      0              265.49914      518.20598      1.3833474    
  69140000   297.44009      0              248.40252      511.72641      0.032861826  
  69150000   304.82457      0              283.22354      553.08491     -0.0029321781 
  69160000   297.23856      0              273.85665      537.00212     -0.29740942   
  69170000   288.56751      0              279.98192      535.45091     -0.53836576   
  69180000   288.67632      0              279.98625      535.55157      0.59669591   
  69190000   306.78458      0              267.40545      539.00202      0.20152642   
  69200000   301.07999      0              243.3227       509.869        0.41401292   
  69210000   316.76664      0              279.43824      559.87193     -1.9132066    
  69220000   316.84531      0              274.4665       554.96983      0.41559287   
  69230000   311.43192      0              246.43637      522.14723     -0.029673056  
  69240000   294.90304      0              283.76598      544.84381     -0.37006224   
  69250000   301.5456       0              273.80106      540.75956      0.18797882   
  69260000   301.76829      0              244.3449       511.50054      0.64549239   
  69270000   298.8476       0              247.85247      512.42243      0.80118282   
  69280000   314.30174      0              268.77831      547.02983      1.8872133    
  69290000   308.34036      0              264.91787      537.89176     -0.19790821   
  69300000   296.70347      0              250.06606      512.73782      0.83170654   
  69310000   306.96068      0              261.74817      533.50063     -1.3281478    
  69320000   294.51226      0              273.66694      534.39882      0.12073611   
  69330000   280.95051      0              270.51861      519.24426     -1.0722708    
  69340000   311.76645      0              268.07261      544.07963      0.016116101  
  69350000   302.87497      0              262.68763      530.82302     -0.61684213   
  69360000   292.35357      0              273.95209      532.77287     -1.1261167    
  69370000   295.54036      0              266.11553      527.75758      0.15404002   
  69380000   287.63879      0              281.53181      536.1786       0.72443982   
  69390000   303.56404      0              260.8623       529.60772      0.39246905   
  69400000   311.67626      0              252.74638      528.67356     -0.70814142   
  69410000   287.54314      0              270.94039      525.5025      -0.15120311   
  69420000   295.90532      0              264.25989      526.22505     -1.4739351    
  69430000   275.15214      0              265.44574      509.03809     -0.33388147   
  69440000   321.36398      0              248.80081      533.30453     -0.71826529   
  69450000   272.02882      0              256.17491      497.00219     -0.70044817   
  69460000   313.21947      0              281.10616      558.39954      0.56838173   
  69470000   296.48229      0              268.2766       530.75255      0.80511521   
  69480000   296.68785      0              267.81483      530.47276      0.15497872   
  69490000   319.67476      0              268.29937      551.30762      1.1382869    
  69500000   295.97638      0              259.00963      521.03769      0.60635185   
  69510000   274.99403      0              270.00577      513.45815     -0.69256495   
  69520000   307.44986      0              272.78546      544.97099     -0.90683678   
  69530000   291.25994      0              291.49493      549.34753      0.090145393  
  69540000   315.24851      0              242.72006      521.80975      1.3955631    
  69550000   284.54458      0              274.31297      526.22045      1.243697     
  69560000   302.93997      0              263.09131      531.28424     -0.95069789   
  69570000   294.5752       0              285.03765      545.82525      0.1563059    
  69580000   312.93845      0              285.23179      562.27638      2.2355624    
  69590000   310.30653      0              277.55493      552.26948      0.023453945  
  69600000   284.48875      0              245.94612      497.80418      1.3331902    
  69610000   289.2903       0              251.82719      507.93606      1.9650147    
  69620000   324.43299      0              284.05248      571.2732      -0.8744612    
  69630000   301.24167      0              264.76193      531.45136     -0.20307623   
  69640000   294.81504      0              268.43962      529.43955     -0.0052340718 
  69650000   316.92107      0              268.28162      548.85203     -0.48647196   
  69660000   308.64975      0              269.64416      542.89197     -0.63668082   
  69670000   309.85233      0              279.32308      553.63553      0.32258531   
  69680000   308.52927      0              284.58568      557.72682      1.1757426    
  69690000   285.92929      0              233.54259      486.67596      0.0077694328 
  69700000   286.44061      0              277.66975      531.25578     -0.22140405   
  69710000   314.12911      0              284.07024      562.16892     -0.18313468   
  69720000   311.9464       0              257.62071      533.78704     -0.38352578   
  69730000   308.93069      0              284.87562      558.37215     -0.66108252   
  69740000   302.47413      0              251.30701      519.08753      0.51518485   
  69750000   281.58567      0              255.28926      504.57722     -2.1258699    
  69760000   318.33345      0              282.48679      564.30757      2.5565501    
  69770000   290.54685      0              243.69714      500.91843     -0.02927045   
  69780000   297.3154       0              280.66486      543.87836      0.94541201   
  69790000   324.98134      0              268.45544      556.16161     -2.8956231    
  69800000   292.03123      0              278.24908      536.7845      -0.788566     
  69810000   277.75686      0              265.94385      511.84216      0.95381624   
  69820000   309.20402      0              254.63303      528.37152      1.0056932    
  69830000   290.62275      0              253.33677      510.62526     -0.97818249   
  69840000   327.82388      0              247.98761      538.21029     -1.0752615    
  69850000   296.45288      0              246.86521      509.31512     -0.14472838   
  69860000   279.2963       0              261.99582      509.257        0.44575043   
  69870000   287.74036      0              272.85748      527.59419      0.25078787   
  69880000   309.86204      0              246.5314       520.85244      0.63358106   
  69890000   297.67729      0              267.38554      530.91942      0.11274492   
  69900000   282.05784      0              257.10027      506.80624      0.83341454   
  69910000   322.08612      0              260.53337      545.67641     -0.67751987   
  69920000   292.25368      0              273.46812      532.20047     -0.0777269    
  69930000   267.89618      0              283.27275      520.44139      0.25502177   
  69940000   276.82299      0              237.41431      482.48587      1.0154377    
  69950000   314.2511       0              267.72909      545.93577     -0.075981062  
  69960000   277.91992      0              269.75503      515.7977       0.62081477   
  69970000   311.00141      0              249.46661      524.79634      2.0866651    
  69980000   289.48828      0              236.95006      493.23421      0.99963781   
  69990000   287.17995      0              270.70681      524.94739      0.98721015   
  70000000   295.25135      0              268.63942      530.02562      0.90105409   
  70010000   313.21972      0              288.37181      565.66541     -0.70434951   
  70020000   314.80627      0              261.9727       540.67087      0.16072967   
  70030000   292.42494      0              269.99763      528.8816      -0.50341538   
  70040000   288.9553       0              265.93407      521.74637      0.66799119   
  70050000   313.14608      0              283.10992      560.33832      0.15836611   
  70060000   310.50594      0              243.70081      518.5919       0.56019916   
  70070000   308.74561      0              299.68119      573.01386      0.12076197   
  70080000   314.24387      0              256.97353      535.1738       1.0531931    
  70090000   288.54951      0              276.81224      532.26528      0.81686167   
  70100000   271.7428       0              262.22822      502.80228      0.30221531   
  70110000   303.24816      0              280.04398      548.50975     -0.19718663   
  70120000   286.23204      0              254.42001      507.8214       0.6747935    
  70130000   307.95861      0              247.66226      520.2982      -1.9808561    
  70140000   297.48219      0              265.73108      529.09223      1.5348077    
  70150000   292.36766      0              261.44832      520.28158      0.56226979   
  70160000   306.00571      0              256.22361      527.13064     -0.66590124   
  70170000   323.46754      0              266.23522      552.60123     -0.31488457   
  70180000   308.1502       0              254.31069      527.11624     -0.13730971   
  70190000   312.02481      0              276.71207      552.94783      0.64893679   
  70200000   293.66704      0              255.00731      514.99092     -0.52906699   
  70210000   276.9132       0              254.85145      500.00287     -0.98327616   
  70220000   302.49437      0              261.86274      529.66119     -0.63156879   
  70230000   329.71509      0              250.20718      542.10414      0.77109599   
  70240000   308.31585      0              265.93848      538.89068      0.12090882   
  70250000   313.02913      0              269.103        546.22787      0.8427626    
  70260000   289.19363      0              254.39698      510.42027     -0.86160719   
  70270000   299.26984      0              271.88873      536.83249      0.17232067   
  70280000   286.35717      0              268.71166      522.22382     -1.3082154    
  70290000   324.47651      0              260.61372      547.87297      1.814997     
  70300000   312.16002      0              277.66883      554.02427     -0.9245145    
  70310000   300.49498      0              286.35753      552.38591      0.7901404    
  70320000   289.57571      0              266.59944      522.96098      0.070625612  
  70330000   297.24001      0              278.51801      541.66476     -0.42782595   
  70340000   303.15445      0              253.21309      521.5959      -0.19683688   
  70350000   310.65255      0              240.49599      515.51688     -0.76490628   
  70360000   278.56793      0              263.85204      510.4684      -2.2353492    
  70370000   289.11888      0              261.29737      517.25448     -1.6454578    
  70380000   355.14374      0              258.73641      573.14537     -0.46012438   
  70390000   278.88521      0              269.07         515.96724      0.73138758   
  70400000   295.03206      0              269.18411      530.37616     -0.23091688   
  70410000   299.0988       0              258.43212      523.22446      1.0879156    
  70420000   312.46225      0              252.0727       528.69571      0.095081969  
  70430000   309.5921       0              249.17405      523.25612      0.80891081   
  70440000   298.81689      0              266.77807      531.32084     -0.18788556   
  70450000   303.00973      0              274.40341      542.6581      -0.85035796   
  70460000   321.88596      0              286.55881      571.52464      0.3270287    
  70470000   305.9789       0              273.35356      544.23686     -1.9817782    
  70480000   284.14545      0              272.90196      524.4561       0.23552552   
  70490000   287.5178       0              266.52261      521.06229     -0.88055218   
  70500000   295.02475      0              249.51375      510.69933      2.1916152    
  70510000   325.38183      0              253.57052      541.63124     -0.96940496   
  70520000   294.86966      0              264.6367       525.68498     -1.1402284    
  70530000   320.26599      0              291.34651      574.87818     -0.79398511   
  70540000   285.02052      0              261.47307      513.8019      -1.1006427    
  70550000   312.90324      0              256.09865      533.11207     -0.82749052   
  70560000   309.90454      0              258.65252      533.01119      0.26414417   
  70570000   277.21031      0              270.51507      515.92952      0.51122317   
  70580000   296.30658      0              257.87856      520.19894     -1.1023581    
  70590000   309.76036      0              266.95117      541.1822      -0.65463081   
  70600000   291.39078      0              256.328        514.29642     -0.14290592   
  70610000   267.21678      0              263.30114      499.86832     -0.60829162   
  70620000   319.10321      0              252.33597      534.83822      0.36018662   
  70630000   292.37691      0              258.04179      516.88324     -1.6095353    
  70640000   315.81373      0              261.42199      541.01207      1.2172874    
  70650000   297.89467      0              245.17784      508.90417      0.48619568   
  70660000   301.91805      0              257.90459      525.19282     -0.30277473   
  70670000   286.79111      0              251.64412      505.54047     -0.60493453   
  70680000   290.596        0              263.45168      520.71649      1.1069094    
  70690000   319.69195      0              268.83616      551.85963      0.0016364342 
  70700000   297.07307      0              237.85452      500.85348      0.82227243   
  70710000   299.81316      0              267.151        532.57576     -1.884511     
  70720000   304.49509      0              254.63839      524.20806     -0.51650816   
  70730000   296.94627      0              274.11958      537.00629      0.42934241   
  70740000   281.71436      0              250.88331      500.2852      -1.6030306    
  70750000   322.74406      0              250.08729      535.81279     -0.20656751   
  70760000   297.3123       0              261.88932      525.10007     -0.54880785   
  70770000   301.26799      0              273.20226      539.91499      0.97935578   
  70780000   319.29481      0              252.85555      535.52743      1.274939     
  70790000   350.98345      0              256.61063      567.33648      0.47385741   
  70800000   275.91548      0              259.39861      503.66675     -1.2250339    
  70810000   304.74996      0              252.94072      522.73603      1.6963533    
  70820000   292.19139      0              304.42859      563.10579      1.0638536    
  70830000   333.24894      0              269.43877      564.46425     -0.46303003   
  70840000   303.67712      0              271.39383      540.23936     -0.6864303    
  70850000   319.15634      0              267.51297      550.06226     -0.13875503   
  70860000   310.91662      0              289.36038      564.61504      2.1009276    
  70870000   307.86792      0              248.79482      521.35048     -0.98628592   
  70880000   288.44127      0              270.15101      525.50823     -1.9113028    
  70890000   313.96557      0              272.0371       549.99101     -1.6897913    
  70900000   319.68476      0              270.50863      553.52573      0.091042246  
  70910000   296.6819       0              252.9953       515.64796     -0.53952864   
  70920000   305.79139      0              256.72331      527.44061     -0.434395     
  70930000   294.5319       0              264.89868      525.64795      0.1496438    
  70940000   321.60941      0              246.97431      531.69531      0.65718636   
  70950000   293.72839      0              244.70537      504.74328     -0.18458964   
  70960000   281.91433      0              270.50931      520.08824      0.34822503   
  70970000   299.5057       0              284.13072      549.28328     -0.82841597   
  70980000   294.39163      0              268.30688      528.93197     -1.1784543    
  70990000   304.01725      0              270.87363      540.02028     -1.6304115    
  71000000   316.00579      0              263.24556      543.00567     -1.2833356    
  71010000   298.8291       0              266.94634      531.49992     -1.7146648    
  71020000   273.43422      0              269.18536      511.25684      0.8833248    
  71030000   295.98805      0              262.146        524.18439      0.25286485   
  71040000   295.12352      0              258.25466      519.52768      0.50097265   
  71050000   306.45815      0              253.42212      524.7297      -0.87519801   
  71060000   300.83016      0              230.09573      496.42084     -0.47311734   
  71070000   325.14299      0              246.39541      534.24469      0.12517329   
  71080000   295.79617      0              283.28083      545.14935      1.6719464    
  71090000   296.85595      0              235.65399      498.46074      0.84316845   
  71100000   289.16263      0              266.66083      522.65668      0.38204501   
  71110000   299.44054      0              265.4892       530.58409      0.93342746   
  71120000   291.65311      0              249.12011      507.32078      0.13983066   
  71130000   298.11112      0              259.88384      523.80179      0.28679243   
  71140000   299.59191      0              248.88834      514.11723     -0.75102085   
  71150000   311.04418      0              259.24207      534.60966      0.37145172   
  71160000   272.81086      0              254.79669      496.3163      -1.9526897    
  71170000   301.21009      0              272.88731      539.54877      1.3181227    
  71180000   296.05571      0              264.72525      526.82354     -1.1800783    
  71190000   297.38182      0              280.64761      543.9199       0.19513557   
  71200000   317.83168      0              251.48535      532.86192      0.16978199   
  71210000   288.28515      0              252.71374      507.93275      0.69170278   
  71220000   295.75962      0              268.48531      530.32148     -1.4112341    
  71230000   279.55698      0              272.27041      519.76237     -0.56399594   
  71240000   295.58689      0              270.69512      532.37837     -1.2523813    
  71250000   282.41164      0              256.39924      506.41843     -1.6416551    
  71260000   295.12195      0              257.36037      518.63201      0.15489671   
  71270000   266.81767      0              261.6555       497.86933     -0.22621958   
  71280000   291.04548      0              270.58173      528.24446     -1.0527569    
  71290000   297.00779      0              250.08272      513.02389      1.102328     
  71300000   308.05119      0              234.81116      507.52906     -0.23497858   
  71310000   278.75104      0              268.5393       515.31775     -0.20454956   
  71320000   299.10643      0              271.4239       536.223        0.44433074   
  71330000   305.86969      0              248.40838      519.19499      0.14652178   
  71340000   323.95322      0              266.13834      552.93432     -2.8170417    
  71350000   313.79651      0              269.52621      547.33044     -2.0557718    
  71360000   284.36448      0              251.19732      502.94536      0.82380204   
  71370000   308.05122      0              263.46528      536.18321     -1.2308006    
  71380000   305.98684      0              284.49473      555.38506     -1.7045862    
  71390000   281.71875      0              246.06181      495.46759      2.8289186    
  71400000   269.97884      0              257.75551      496.76793     -0.94169717   
  71410000   296.90145      0              268.89185      531.73887      2.4439932    
  71420000   285.28563      0              262.12063      514.68416      0.40098032   
  71430000   303.9664       0              263.26685      532.36848      0.76864053   
  71440000   301.64266      0              265.08528      532.12971     -1.4095615    
  71450000   332.69179      0              277.0964       571.62864     -0.67490483   
  71460000   309.5154       0              242.4763       516.49047     -0.28143862   
  71470000   294.23988      0              264.42334      524.91408      3.0279789    
  71480000   312.79333      0              269.53066      546.44678      0.32174424   
  71490000   301.34927      0              273.73506      540.51974      0.03841563   
  71500000   293.19954      0              266.8141       526.38382      0.54630738   
  71510000   319.19462      0              275.31989      557.90308     -0.85249474   
  71520000   314.21749      0              267.238        545.41493     -0.96610624   
  71530000   278.20485      0              295.97222      542.26714      2.1306087    
  71540000   303.5007       0              296.89146      565.58081      0.41926442   
  71550000   312.04905      0              277.30046      553.55767     -0.66790061   
  71560000   305.27048      0              267.82994      538.08608     -0.40439587   
  71570000   299.48664      0              234.01804      499.15373      0.98022558   
  71580000   288.52224      0              249.40418      504.83309      0.97401441   
  71590000   303.55023      0              266.27375      535.00694     -0.33364086   
  71600000   304.8586       0              277.69522      547.58672      0.40576019   
  71610000   338.30309      0              261.53999      561.03991     -1.0187742    
  71620000   306.11438      0              275.22305      546.2263      -1.2175519    
  71630000   286.1446       0              272.77112      526.0951       0.70250831   
  71640000   297.88402      0              269.40042      533.11732     -0.25810725   
  71650000   325.80276      0              261.13284      549.56621      1.6358503    
  71660000   299.85954      0              276.16626      541.63209     -0.916205     
  71670000   339.23473      0              266.89376      567.21846     -1.2360258    
  71680000   279.6838       0              255.94304      503.54728      0.97618446   
  71690000   294.57462      0              247.18229      507.96938      0.96604466   
  71700000   286.01117      0              297.97002      551.17588     -0.70330341   
  71710000   281.88876      0              252.74357      502.29985      0.3575899    
  71720000   279.64637      0              268.78238      516.35347      0.23433107   
  71730000   282.22051      0              261.72907      511.57906     -1.857232     
  71740000   310.08667      0              257.63711      532.15702      0.96946692   
  71750000   296.98458      0              269.73986      532.66048      0.12099072   
  71760000   303.89872      0              264.33753      533.37925      0.19272882   
  71770000   298.02415      0              262.70521      526.54616      1.1684176    
  71780000   272.88659      0              243.58737      485.17403      0.85685498   
  71790000   299.20204      0              277.54384      542.42758     -0.42172561   
  71800000   297.59795      0              272.83096      536.29459      1.1683167    
  71810000   306.41186      0              297.66463      568.93123     -1.3225771    
  71820000   297.94547      0              282.91502      546.68632     -1.0996373    
  71830000   295.5738       0              253.79006      515.46172      0.018371436  
  71840000   302.47708      0              257.42219      525.20532     -1.8516606    
  71850000   314.2831       0              244.10134      522.33635     -0.71537641   
  71860000   312.78213      0              242.56658      519.47279      0.76689592   
  71870000   288.77713      0              261.1569       516.81146     -1.5110666    
  71880000   284.60887      0              275.76996      527.73436      1.4098806    
  71890000   285.56395      0              271.2778       524.08773      1.3560856    
  71900000   292.50169      0              271.87607      530.82798     -1.3076373    
  71910000   291.49959      0              273.27894      531.3437       0.63578397   
  71920000   280.33072      0              279.7015       527.87845     -1.0810754    
  71930000   292.34         0              243.51917      502.32794     -0.4013943    
  71940000   269.15536      0              255.9279       494.2113      -0.58028536   
  71950000   315.05187      0              261.8137       540.7293      -1.4019244    
  71960000   288.16071      0              249.10753      504.21638     -0.61759559   
  71970000   302.22735      0              274.22966      541.79172     -0.2743863    
  71980000   328.38958      0              242.73143      533.45491      0.74806601   
  71990000   315.21443      0              255.99665      535.05617      0.25749607   
  72000000   306.64409      0              255.64745      527.11964     -1.7945244    
  72010000   300.44622      0              278.66164      544.64686     -0.62630059   
  72020000   302.29594      0              281.32939      548.95216     -1.3322645    
  72030000   302.05463      0              250.19201      517.60115     -0.87781603   
  72040000   306.70237      0              252.1209       523.64469     -0.93080402   
  72050000   307.70035      0              288.64425      561.05155     -0.070319354  
  72060000   293.26627      0              264.84688      524.47568      0.077473718  
  72070000   287.17755      0              264.04874      518.28719     -0.80317044   
  72080000   301.67193      0              257.57855      524.64889      1.5585651    
  72090000   281.71404      0              256.2533       505.65491      0.68162055   
  72100000   286.01823      0              252.70673      505.91883      0.13890471   
  72110000   294.32004      0              258.75573      519.31743      0.56627768   
  72120000   306.02743      0              240.8899       511.81617     -1.6734623    
  72130000   286.20056      0              258.34852      511.72204     -2.3967075    
  72140000   306.14388      0              268.72859      539.75794      0.6115259    
  72150000   300.61006      0              269.84163      535.9719      -0.76584952   
  72160000   299.16456      0              263.18902      528.03958     -0.47888339   
  72170000   316.44896      0              259.4351       539.58755      1.2722576    
  72180000   317.71551      0              258.82384      540.09757     -0.33220024   
  72190000   300.62865      0              259.21656      525.36328     -1.8356855    
  72200000   296.24566      0              285.83796      548.10441      1.012113     
  72210000   282.25257      0              256.2586       506.13696      1.4037256    
  72220000   305.79976      0              273.01832      543.74302      0.78895644   
  72230000   269.27426      0              263.9678       502.35646     -0.91549702   
  72240000   318.95123      0              259.12201      541.48973     -1.4144122    
  72250000   309.88286      0              263.97883      538.31831      0.19786723   
  72260000   311.07937      0              262.5371       537.93585     -0.4737649    
  72270000   289.89028      0              261.77255      518.41259     -1.2056928    
  72280000   318.33882      0              256.81625      538.64179     -0.59496832   
  72290000   291.40618      0              282.1559       540.13797     -1.001008     
  72300000   310.55147      0              290.3654       565.2968       0.25803905   
  72310000   296.35612      0              240.65215      503.0164      -0.42639133   
  72320000   306.91879      0              270.24635      541.96174     -1.0775294    
  72330000   295.48602      0              291.34316      552.93711      0.16957076   
  72340000   339.47189      0              280.01873      580.55339      0.30473269   
  72350000   287.32491      0              247.02086      501.38977      0.1926895    
  72360000   301.81342      0              262.50218      529.69778      0.26666484   
  72370000   286.9674       0              248.87575      502.92815      0.16735235   
  72380000   290.68806      0              266.30199      523.6483       0.18617677   
  72390000   310.3858       0              279.70193      554.48666     -1.1347651    
  72400000   317.04962      0              246.19387      526.87808     -1.6877933    
  72410000   294.89874      0              258.33428      519.4083       0.7405191    
  72420000   297.54619      0              245.64381      509.06163      0.31797921   
  72430000   294.45746      0              249.31145      509.99482     -0.20450426   
  72440000   329.89989      0              274.52562      566.58619     -0.92711251   
  72450000   278.00875      0              269.14461      515.26592      1.4064873    
  72460000   352.07744      0              267.20807      578.90244      0.71562996   
  72470000   295.31875      0              267.23291      528.67878     -0.28889053   
  72480000   293.48409      0              267.91205      527.73368     -0.55799137   
  72490000   293.59785      0              253.51773      513.44007      0.030234964  
  72500000   329.38077      0              265.68688      557.28787     -0.67761921   
  72510000   293.14147      0              243.13114      502.64946     -0.55193917   
  72520000   314.4836       0              273.18754      551.60005      1.4185808    
  72530000   305.74017      0              255.50967      526.18163      0.38537055   
  72540000   289.10706      0              261.43916      517.38581      0.43483918   
  72550000   289.09967      0              260.09435      516.03446      0.45800727   
  72560000   293.18018      0              278.99206      538.54465      1.8803451    
  72570000   314.01833      0              270.02702      548.02763     -0.45651621   
  72580000   326.02705      0              253.83002      542.46196     -0.17879994   
  72590000   308.93762      0              262.50285      536.0055      -1.3956936    
  72600000   286.19983      0              273.79779      527.17066      1.355234     
  72610000   292.56266      0              266.42955      525.43545      0.99680389   
  72620000   314.91491      0              262.90319      541.69754     -0.2994025    
  72630000   305.50178      0              236.7139       507.17481     -0.82811436   
  72640000   296.36724      0              274.05135      536.42544     -1.0463663    
  72650000   274.91849      0              273.51291      516.89841      1.8619694    
  72660000   306.15015      0              274.20215      545.23705     -0.39368357   
  72670000   295.43457      0              292.50332      554.05171     -1.4995927    
  72680000   300.38448      0              253.78383      519.71438      0.52222696   
  72690000   300.62509      0              273.8375       539.98106      1.1294198    
  72700000   291.08206      0              250.77685      508.47197      0.054742235  
  72710000   310.83694      0              264.33448      539.5186      -0.014100613  
  72720000   303.47261      0              263.34449      532.00896     -0.82437157   
  72730000   308.81674      0              274.38413      547.77977     -0.53191419   
  72740000   321.58957      0              271.2996       556.00304      0.48979808   
  72750000   309.96156      0              267.57936      541.98851      0.82634541   
  72760000   309.33912      0              261.51029      535.36839     -0.09361837   
  72770000   279.84222      0              260.20973      507.95421     -0.71272388   
  72780000   330.70367      0              276.82397      569.59612      0.48288207   
  72790000   302.34858      0              258.50515      526.17453     -0.37119291   
  72800000   299.38023      0              276.54467      541.58617      1.1219269    
  72810000   320.89599      0              253.75884      537.84824     -0.51783038   
  72820000   292.00329      0              270.13407      528.64476      0.74382833   
  72830000   266.40663      0              240.80112      476.65107     -1.8291136    
  72840000   263.29824      0              282.0071       515.10519     -0.70173206   
  72850000   290.68591      0              250.53368      507.87808     -0.52291409   
  72860000   279.8852       0              260.15812      507.94064     -0.43830412   
  72870000   312.60136      0              276.67065      553.41682     -1.8035961    
  72880000   314.06924      0              275.39891      553.44459      1.3473195    
  72890000   308.21507      0              268.39625      541.25923     -0.12194072   
  72900000   304.20626      0              274.94561      544.25958     -1.2591459    
  72910000   311.32989      0              267.59818      543.21871      0.17516513   
  72920000   288.98013      0              252.83219      508.66646     -1.2903351    
  72930000   286.27997      0              272.3215       525.76533     -0.065822373  
  72940000   331.64641      0              289.74256      583.34932     -1.6247813    
  72950000   302.36871      0              256.65163      524.33882     -0.40119283   
  72960000   297.179        0              244.13661      507.22936     -1.5670155    
  72970000   287.64927      0              253.36886      508.02493     -0.29992799   
  72980000   308.4392       0              277.87226      550.93366      0.59151121   
  72990000   290.51909      0              250.42166      507.61838      1.1062163    
  73000000   289.98913      0              269.0982       525.82574     -0.53382393   
  73010000   291.86309      0              263.53627      521.92284     -1.3346036    
  73020000   282.22673      0              269.96955      519.82504      0.11412317   
  73030000   301.0049       0              275.65828      542.13809      0.12167341   
  73040000   291.21226      0              265.23275      523.04313      0.71699547   
  73050000   291.78976      0              268.61449      526.93614     -0.70082716   
  73060000   305.71168      0              281.97045      552.61719     -0.42402889   
  73070000   295.66224      0              252.53979      514.28974     -0.47742867   
  73080000   291.96061      0              279.42673      537.89963     -1.0257686    
  73090000   312.29086      0              266.43458      542.90586      1.4435569    
  73100000   305.13949      0              272.52806      542.66823     -0.77003428   
  73110000   315.5653       0              272.79939      552.16953      1.2054583    
  73120000   314.63881      0              256.13782      534.68775      1.0257426    
  73130000   310.25303      0              274.11887      548.78607      0.68170664   
  73140000   311.23662      0              244.08053      519.6185       0.58392333   
  73150000   270.29048      0              255.37355      494.66187     -1.127416     
  73160000   312.45806      0              282.05401      558.67331     -1.0186827    
  73170000   291.10257      0              257.1758       514.88907      0.86430622   
  73180000   308.55366      0              271.07215      544.23488      0.019440277  
  73190000   274.88161      0              274.22225      517.5751      -1.2386644    
  73200000   310.53067      0              277.88738      552.80036      0.28070222   
  73210000   294.65144      0              265.23566      526.09075     -0.046114129  
  73220000   310.19678      0              275.02238      549.63977      1.3813996    
  73230000   283.47477      0              278.60792      529.5683       1.0190089    
  73240000   272.26969      0              251.91691      492.95743     -1.1786844    
  73250000   269.16781      0              270.51811      508.81253     -0.12149438   
  73260000   301.54894      0              269.71987      536.68132     -0.8279672    
  73270000   302.19435      0              252.42041      519.95324      0.30906852   
  73280000   282.41968      0              243.99848      494.02479     -0.54791013   
  73290000   309.76247      0              273.16374      547.39664     -1.2751323    
  73300000   307.87043      0              260.57771      533.13559      0.21834073   
  73310000   320.95858      0              259.47177      543.61659     -0.88789028   
  73320000   303.45736      0              249.1341       517.78508      0.19593368   
  73330000   324.60625      0              257.54091      544.91501      1.5247621    
  73340000   330.21754      0              255.13028      547.47207     -0.077933711  
  73350000   320.64223      0              272.53378      556.39854     -0.67300103   
  73360000   282.81353      0              259.53634      509.91133      1.8200719    
  73370000   304.49269      0              249.2265       518.79406      1.0160836    
  73380000   303.10444      0              268.32405      536.66258      0.59311142   
  73390000   322.87169      0              273.82656      559.66506      0.89323782   
  73400000   313.53717      0              252.02229      529.59693     -2.0430865    
  73410000   309.89248      0              256.21943      530.56743      0.38252629   
  73420000   250.54972      0              268.79692      490.60873      0.3274283    
  73430000   296.37228      0              253.57474      515.95329     -0.17956973   
  73440000   298.52057      0              264.49829      528.77872     -1.687808     
  73450000   287.89087      0              257.69788      512.56783     -1.0417646    
  73460000   287.83741      0              263.84109      518.66372     -0.66339996   
  73470000   285.9878       0              264.13095      517.31612     -0.40864434   
  73480000   311.14964      0              265.54886      541.00983     -0.089173748  
  73490000   324.59241      0              268.38377      555.74562     -0.57673854   
  73500000   297.10223      0              250.16745      513.19223      0.85324089   
  73510000   308.32448      0              279.50135      552.46119      0.55457173   
  73520000   320.73124      0              293.65691      577.60046      0.12706309   
  73530000   297.69112      0              266.12076      529.66689     -1.1121471    
  73540000   291.13277      0              264.54663      522.28664      0.62995172   
  73550000   301.93729      0              270.4777       537.78296     -1.5070156    
  73560000   288.88616      0              277.70717      533.45826     -1.4781205    
  73570000   306.59766      0              223.71264      495.14373     -1.5280499    
  73580000   310.61642      0              238.50263      513.49152     -0.29901075   
  73590000   299.82682      0              267.40269      532.83954      0.7654522    
  73600000   317.24903      0              250.76832      531.62907     -0.41125419   
  73610000   291.45013      0              255.1176       513.13857      0.58694898   
  73620000   311.7486       0              258.29167      534.28289     -1.0988257    
  73630000   311.72915      0              270.91551      546.8895       0.011452539  
  73640000   301.6839       0              257.09636      524.1773       0.26582853   
  73650000   303.56061      0              245.0819       513.82428     -0.3496024    
  73660000   293.50791      0              282.7131       542.55583      1.6884853    
  73670000   290.10801      0              273.51192      530.34471      0.080567436  
  73680000   288.98335      0              260.81794      516.65506     -0.65537752   
  73690000   301.16858      0              272.48763      539.11234      1.9249563    
  73700000   287.87461      0              264.10122      518.95678      2.3797886    
  73710000   284.10879      0              250.47833      502.00001      2.4859287    
  73720000   313.30412      0              251.57497      528.94329      0.97707979   
  73730000   293.993        0              250.40828      510.68046     -0.93995192   
  73740000   309.37214      0              274.56625      548.45359     -1.210263     
  73750000   315.30609      0              264.81559      543.95626     -0.0095618893 
  73760000   294.20976      0              266.04638      526.51045     -1.7093       
  73770000   309.91159      0              261.01895      535.38386      1.1481072    
  73780000   304.11993      0              255.13427      524.37183     -2.5321381    
  73790000   272.00883      0              270.71904      511.52861      1.1369897    
  73800000   292.51146      0              285.05745      544.01802      1.1662976    
  73810000   305.63918      0              276.02301      546.60556     -0.22355563   
  73820000   305.18172      0              280.95395      551.13151     -0.1334784    
  73830000   263.58017      0              260.67746      494.02514     -0.44029811   
  73840000   292.95757      0              269.68376      529.03927      0.10625445   
  73850000   299.34493      0              238.08568      503.09592      0.48242331   
  73860000   303.85513      0              272.91638      541.9195      -0.76845935   
  73870000   285.0867       0              255.20297      507.59039     -2.0066253    
  73880000   296.15661      0              266.84182      529.02944     -1.9976169    
  73890000   328.90962      0              258.08473      549.26861      0.41186793   
  73900000   316.71872      0              268.35423      548.7455      -0.25314957   
  73910000   283.81777      0              277.72083      528.98486      1.6829824    
  73920000   296.40969      0              270.46075      532.87242      0.01511343   
  73930000   282.59461      0              256.43807      506.61925      1.3110228    
  73940000   317.64356      0              281.78297      562.993       -0.46922535   
  73950000   308.89905      0              264.00278      537.47128      0.40288862   
  73960000   299.14305      0              270.48861      535.32013     -1.4434154    
  73970000   328.92933      0              256.8276       548.02893      0.061902012  
  73980000   290.00272      0              284.37609      541.11567      0.074869322  
  73990000   287.59303      0              227.81032      482.4166       1.0319919    
  74000000   299.93267      0              275.13109      540.66166     -1.5700987    
  74010000   279.60667      0              265.64246      513.17841     -0.28600671   
  74020000   298.68785      0              266.55706      530.98558     -0.14291503   
  74030000   293.55051      0              265.02141      524.90185      0.15473301   
  74040000   300.53061      0              287.13025      553.19018     -1.3032903    
  74050000   316.77532      0              254.07954      534.52092     -0.020252918  
  74060000   314.63475      0              268.34459      546.89092      1.0086187    
  74070000   298.21113      0              265.73149      529.73798     -1.4951064    
  74080000   294.20121      0              246.68336      507.13987     -0.035378615  
  74090000   313.52613      0              280.04324      557.60811      0.91552498   
  74100000   275.94329      0              259.31079      503.60354      0.17177958   
  74110000   295.71339      0              260.37627      522.17151     -1.7916064    
  74120000   301.10439      0              256.39647      522.96436      1.9419957    
  74130000   277.50431      0              249.64356      495.31829     -0.40695549   
  74140000   311.63146      0              294.5463       570.43381     -1.916875     
  74150000   288.72048      0              282.85539      538.45979     -0.025642409  
  74160000   302.99917      0              263.11111      531.35645     -1.9502155    
  74170000   310.21121      0              261.57118      536.20134     -1.6282394    
  74180000   313.32219      0              243.37512      520.75944      0.57028021   
  74190000   288.40979      0              269.65074      524.9801      -0.34885101   
  74200000   280.59246      0              281.16819      529.57686     -0.12874056   
  74210000   295.02772      0              257.49319      518.6814      -0.4140113    
  74220000   281.99323      0              256.22698      505.87575      0.53012618   
  74230000   294.49086      0              263.26119      523.97412     -0.10939153   
  74240000   322.97176      0              260.90705      546.83414     -1.2613918    
  74250000   303.38649      0              260.28276      528.871       -0.27780034   
  74260000   304.232        0              257.72241      527.05918     -0.83536433   
  74270000   313.33479      0              283.55085      560.94632      2.0978401    
  74280000   307.74553      0              258.90437      531.35166     -0.56566712   
  74290000   314.03593      0              263.77646      541.79265     -0.0226482    
  74300000   312.34464      0              268.40981      544.9287       0.29331163   
  74310000   314.60223      0              292.80363      571.32116     -0.44822915   
  74320000   306.37154      0              262.21606      533.44697     -1.412165     
  74330000   297.40648      0              260.87266      524.16679      0.8071945    
  74340000   293.82844      0              259.42292      519.54941     -0.6470402    
  74350000   304.80823      0              244.74138      514.58828     -0.19184567   
  74360000   311.65477      0              278.41457      554.32272     -0.49552105   
  74370000   277.94932      0              272.02726      518.09596      1.0409926    
  74380000   291.58082      0              256.90304      515.0397      -0.98760259   
  74390000   310.44532      0              264.04507      538.88249     -1.1040886    
  74400000   305.33702      0              274.13665      544.45169     -0.90105952   
  74410000   300.69382      0              271.38571      537.59012      0.13006858   
  74420000   303.84423      0              268.75863      537.7521       0.41124347   
  74430000   288.03865      0              250.87619      505.87698      1.5051043    
  74440000   300.78286      0              254.62617      520.90941      0.98759525   
  74450000   308.84861      0              253.66057      527.08443      2.0916663    
  74460000   282.9944       0              244.14953      494.68464      0.061141867  
  74470000   316.45665      0              252.86147      533.02073     -0.1026018    
  74480000   277.83529      0              262.80912      508.77686      1.1384082    
  74490000   259.36808      0              276.31518      505.93389     -0.9408043    
  74500000   311.33471      0              275.02113      550.64593      1.9121788    
  74510000   303.6316       0              260.48665      529.29188      0.74527539   
  74520000   281.46314      0              271.77559      520.95507     -0.31879659   
  74530000   306.39814      0              254.04776      525.3022      -0.58651464   
  74540000   292.31209      0              244.48481      503.26887      0.1978154    
  74550000   304.43771      0              251.79575      521.31463     -1.5435673    
  74560000   283.14136      0              256.95767      507.62288     -1.0915436    
  74570000   285.38352      0              272.56499      525.21519      0.63768057   
  74580000   282.43306      0              275.40087      525.43902     -1.4056362    
  74590000   307.40359      0              268.17992      540.3245       0.41021037   
  74600000   295.62916      0              247.20301      508.92368     -0.061753321  
  74610000   293.99611      0              256.56009      516.83501      0.51688209   
  74620000   295.4255       0              275.75035      537.29072     -1.1588991    
  74630000   301.60713      0              268.31805      535.33102     -2.6632669    
  74640000   315.11924      0              255.97739      534.95264     -1.3615293    
  74650000   300.54084      0              273.8553       539.92428      1.0975955    
  74660000   297.03013      0              259.06071      522.02166     -0.4812623    
  74670000   288.84833      0              265.27244      520.99003     -0.14195332   
  74680000   308.28117      0              255.57339      528.49489      0.74236436   
  74690000   293.94617      0              266.31598      526.54669      0.45751362   
  74700000   297.4369       0              265.74         529.06106     -0.51746619   
  74710000   303.17857      0              260.61037      529.01454     -0.050850485  
  74720000   317.26603      0              267.89005      548.76585      0.43751538   
  74730000   304.60341      0              262.27407      531.93965      1.1946521    
  74740000   314.929        0              278.64134      557.44816     -0.35870147   
  74750000   317.20285      0              254.02669      534.84656      0.36269916   
  74760000   318.58669      0              263.7706       545.81559     -0.71993184   
  74770000   297.28593      0              265.80511      528.99252     -1.2580574    
  74780000   312.33815      0              266.35404      542.86718     -0.94524423   
  74790000   292.25748      0              269.98903      528.72475      0.36069403   
  74800000   313.40181      0              261.45621      538.91101      0.079415804  
  74810000   314.79132      0              252.1464       530.83134     -0.67207619   
  74820000   321.34186      0              266.44391      550.92805      0.62626202   
  74830000   331.24302      0              261.51263      554.76227      0.72636607   
  74840000   300.96041      0              260.68652      527.12695     -1.0957231    
  74850000   295.97679      0              260.93417      522.9626       0.32144414   
  74860000   318.94815      0              254.91043      537.27541      0.2555176    
  74870000   302.30409      0              311.20776      578.83775     -0.72589694   
  74880000   298.858        0              250.68546      515.26463     -0.057260853  
  74890000   286.80082      0              274.51754      528.42248     -0.10780515   
  74900000   281.12729      0              267.07624      515.9584       0.17951457   
  74910000   306.04101      0              267.67759      538.61588     -1.5695605    
  74920000   305.47633      0              238.97922      509.41759      2.4868824    
  74930000   294.21759      0              249.03412      509.50512     -0.070219183  
  74940000   284.00466      0              256.43033      507.85982      2.0086928    
  74950000   303.2541       0              260.39041      528.86144      0.3934295    
  74960000   288.1798       0              268.51093      523.63668     -1.4324123    
  74970000   306.82697      0              269.7106       541.3447       1.3390703    
  74980000   295.65779      0              282.17433      543.92035     -0.84056675   
  74990000   302.45231      0              292.07151      559.83271      0.097663284  
  75000000   265.33058      0              253.73875      488.63607      0.37183995   
  75010000   263.01485      0              245.51117      478.35837     -1.1848136    
  75020000   304.93319      0              266.83972      536.79726      1.6218427    
  75030000   324.1719       0              271.558        558.54758      2.1389816    
  75040000   321.80797      0              300.67585      585.57263      0.048886345  
  75050000   293.05217      0              286.17571      545.61497     -0.0060212455 
  75060000   303.58188      0              260.42677      529.18799     -0.59908828   
  75070000   285.0091       0              259.69893      512.01765      0.17350158   
  75080000   303.02228      0              262.84423      531.11003     -0.32407367   
  75090000   324.03513      0              276.62925      563.49774     -1.2692371    
  75100000   305.16298      0              258.47159      528.63255      0.036392944  
  75110000   301.98193      0              255.67842      523.0232      -1.1744878    
  75120000   307.97152      0              271.261        543.90836      1.4263583    
  75130000   313.99081      0              256.98722      534.96347     -0.20259453   
  75140000   286.64717      0              266.25298      520.02188      0.23978016   
  75150000   316.75562      0              265.91883      546.34276      0.088005138  
  75160000   319.92346      0              277.31818      560.5466       1.0308665    
  75170000   278.95477      0              255.18202      502.14084      1.0715695    
  75180000   317.02233      0              247.61976      528.27982     -1.5950422    
  75190000   323.3422       0              254.14075      540.39579     -1.5601287    
  75200000   292.74092      0              243.83552      502.99923     -0.070782912  
  75210000   300.89283      0              251.56793      517.94853     -1.215152     
  75220000   310.62316      0              271.36669      546.36156     -0.047224933  
  75230000   292.47225      0              256.96525      515.89111      0.85553313   
  75240000   287.98888      0              270.22013      525.17685      0.9637705    
  75250000   301.73268      0              252.86172      519.98584      0.71809348   
  75260000   318.20502      0              253.95196      535.65906      0.93950904   
  75270000   298.25077      0              249.61738      513.65895     -0.33271277   
  75280000   295.57674      0              252.40784      514.08209     -0.46566448   
  75290000   296.09592      0              263.88351      526.0174      -0.61662178   
  75300000   321.13484      0              268.35017      552.65103     -0.47698368   
  75310000   307.59449      0              271.82894      544.14252      0.5467748    
  75320000   315.70077      0              251.28882      530.7789       0.93340694   
  75330000   309.39807      0              269.90229      543.81259      1.3841766    
  75340000   293.48599      0              251.31289      511.13621      0.37957135   
  75350000   288.07585      0              249.11006      504.14378      1.1933284    
  75360000   307.90965      0              256.67743      529.27002      0.68900605   
  75370000   303.41817      0              290.94236      559.55865     -0.7114181    
  75380000   311.07555      0              293.39219      568.78756     -0.84123839   
  75390000   296.81676      0              270.76919      533.54125     -1.2791597    
  75400000   307.75784      0              273.98172      546.43991      0.28969205   
  75410000   297.55587      0              290.22495      553.65134     -1.8030862    
  75420000   290.22236      0              257.07634      514.01036      0.68630602   
  75430000   288.61014      0              261.18483      516.69155     -1.0442314    
  75440000   291.24622      0              263.92032      521.76077      1.9671344    
  75450000   297.58048      0              272.81385      536.26203     -1.5114227    
  75460000   307.14119      0              260.16329      532.07556     -0.305341     
  75470000   293.43791      0              256.02318      515.80393      0.74958422   
  75480000   275.77002      0              272.77078      516.91015     -0.99987452   
  75490000   313.07617      0              262.42222      539.58873      1.4585355    
  75500000   285.60168      0              260.34473      513.18807      1.6380107    
  75510000   269.78851      0              242.16996      481.01388     -1.0268317    
  75520000   287.40084      0              269.85784      524.29398      0.46065535   
  75530000   288.39343      0              262.8153       518.13018     -0.35724883   
  75540000   291.71005      0              259.62047      517.87154      1.4775638    
  75550000   306.80057      0              273.13762      544.74834      0.57206968   
  75560000   322.12482      0              241.08783      526.26512      1.1956558    
  75570000   312.76466      0              277.39777      554.28851      0.77058599   
  75580000   299.28952      0              272.25998      537.22117      0.41096353   
  75590000   301.40775      0              262.16461      529.00107     -0.28018122   
  75600000   307.87317      0              276.5878       549.14809     -0.043021541  
  75610000   307.10622      0              296.70344      568.58475      0.59088243   
  75620000   290.83948      0              259.40624      516.8866       1.6606354    
  75630000   311.28699      0              269.8634       545.44595     -1.0867886    
  75640000   326.22145      0              256.09126      544.89529      1.3621959    
  75650000   332.35974      0              249.38989      543.62816     -0.44867479   
  75660000   293.5708       0              243.96298      503.86138      0.51812001   
  75670000   286.78099      0              265.48271      519.37009     -0.35443941   
  75680000   304.21072      0              246.60072      515.91865     -0.98618794   
  75690000   295.98829      0              250.77085      512.80946     -1.2083987    
  75700000   293.08839      0              265.25981      524.73113     -0.86598343   
  75710000   327.21597      0              256.07189      545.75637     -0.21559787   
  75720000   346.6189       0              266.6547       573.51662      0.45032648   
  75730000   303.55116      0              244.32014      513.05416      0.33441348   
  75740000   284.26209      0              252.94623      504.60362     -0.6408671    
  75750000   284.46373      0              279.37022      531.20613      1.2908164    
  75760000   295.17175      0              265.61327      526.929       -0.7749435    
  75770000   260.49914      0              265.95316      496.5732       0.88435328   
  75780000   303.35355      0              259.82352      528.3826      -1.4629226    
  75790000   325.22119      0              276.71587      564.63438     -0.22213045   
  75800000   315.30057      0              263.89685      543.03262     -1.1031386    
  75810000   309.87233      0              257.93603      532.26618      0.086446523  
  75820000   313.25298      0              267.61264      544.93569      0.14538522   
  75830000   284.4616       0              249.83003      501.66405      0.062011759  
  75840000   300.16783      0              284.1227       549.86145     -1.3640223    
  75850000   320.94604      0              257.15569      541.28941     -0.92895975   
  75860000   305.03262      0              239.53094      509.5765      -0.32954757   
  75870000   281.03047      0              256.47492      505.27136     -0.73915785   
  75880000   291.9229       0              263.36373      521.80325      1.7523716    
  75890000   298.38827      0              258.72498      522.88829     -0.51589963   
  75900000   290.93608      0              241.09882      498.6647      -0.37359111   
  75910000   301.05732      0              268.41273      534.93895      0.24311171   
  75920000   296.63692      0              271.09986      533.7127       0.76674108   
  75930000   278.73969      0              253.22124      499.98965     -0.42379079   
  75940000   294.56493      0              276.32522      537.10373     -1.0220032    
  75950000   296.05609      0              267.34667      529.4453      -0.13763266   
  75960000   309.40315      0              258.92689      532.84167      0.75789535   
  75970000   298.31328      0              272.19356      536.29048      0.73307463   
  75980000   302.88271      0              250.92133      519.06357     -1.5685545    
  75990000   306.8585       0              248.80819      520.4702      -1.1214329    
  76000000   290.79166      0              271.93032      529.36835      2.8036306    
  76010000   276.97886      0              254.38285      499.5924       0.47417441   
  76020000   310.41838      0              259.6524       534.46597     -0.72551103   
  76030000   311.97247      0              266.75968      542.94909     -1.5387569    
  76040000   299.36373      0              243.56114      508.58802      0.22763804   
  76050000   298.2397       0              272.19813      536.22991      1.2183161    
  76060000   305.70829      0              261.20039      531.84412     -0.93107172   
  76070000   300.45591      0              256.6642       522.65799     -0.54101158   
  76080000   296.30544      0              264.90818      527.22756     -0.64914623   
  76090000   311.37127      0              256.52315      532.18032     -0.62700673   
  76100000   335.01597      0              270.59147      567.1813      -0.67004985   
  76110000   280.69672      0              266.66748      515.16844      1.7372603    
  76120000   311.80395      0              254.12009      530.16031     -0.30847398   
  76130000   335.20627      0              271.54392      568.30223      1.2598132    
  76140000   300.15123      0              244.13604      509.8601       0.39109138   
  76150000   330.40315      0              250.77228      543.27838      1.3229675    
  76160000   301.83705      0              268.94498      536.16149     -1.2857018    
  76170000   272.46249      0              244.31899      485.53019      0.75103596   
  76180000   320.07774      0              264.08311      547.44812      1.2600546    
  76190000   309.50904      0              248.35764      522.36617      0.86205094   
  76200000   304.67565      0              261.22208      530.95162     -0.14064685   
  76210000   301.35932      0              260.02793      526.82152     -0.07551211   
  76220000   319.3607       0              244.82704      527.55725      0.45259229   
  76230000   309.20638      0              267.07298      540.81357     -0.20723203   
  76240000   285.68772      0              236.02715      488.94665      0.50957784   
  76250000   305.55365      0              247.69251      518.19933     -0.92461502   
  76260000   297.77849      0              260.69195      524.31542     -0.98316074   
  76270000   305.87728      0              259.46434      530.25767      0.36787009   
  76280000   295.55475      0              261.97245      523.62725      0.50146891   
  76290000   291.21019      0              247.90388      505.71243     -0.28482876   
  76300000   298.47018      0              267.12578      531.36161     -0.21297239   
  76310000   306.95795      0              251.65845      523.4085      -1.6941383    
  76320000   304.07256      0              284.03707      553.23269      0.51376547   
  76330000   316.68447      0              277.37222      557.73317     -1.7696323    
  76340000   311.71552      0              257.02047      532.9824      -1.0504958    
  76350000   314.01842      0              265.33731      543.338       -1.0723657    
  76360000   297.65639      0              262.75488      526.27026      0.22467166   
  76370000   303.99671      0              260.80427      529.93274     -0.8116929    
  76380000   318.29103      0              275.41493      557.19816      1.8337324    
  76390000   294.42693      0              265.41359      526.06993      0.61117001   
  76400000   284.21173      0              270.11224      521.72505     -0.52074733   
  76410000   306.02836      0              261.4536       532.38068     -1.8865614    
  76420000   309.15899      0              269.06915      542.76779     -0.36227298   
  76430000   293.69967      0              286.09376      546.10625      0.12494183   
  76440000   298.3572       0              282.34904      546.48484     -0.9043231    
  76450000   321.52883      0              257.09765      541.74731     -1.5177895    
  76460000   296.33556      0              242.19543      504.54148      2.0253762    
  76470000   313.46238      0              265.91355      543.42198      0.5375134    
  76480000   288.1958       0              268.91092      524.05083      0.81968446   
  76490000   290.72991      0              272.49818      529.88154      0.11297614   
  76500000   299.68612      0              279.50097      544.81326      0.49148676   
  76510000   289.56179      0              246.51161      502.86083      0.66294938   
  76520000   295.59961      0              274.74098      536.43549      0.65109496   
  76530000   295.46668      0              267.06355      528.64038     -0.56626525   
  76540000   331.13288      0              256.10838      549.26052     -1.2233528    
  76550000   295.58338      0              288.27795      549.95809     -1.0533263    
  76560000   298.76811      0              287.28975      551.78933     -0.75272335   
  76570000   285.25006      0              285.0722       537.60424     -1.570488     
  76580000   326.047        0              258.9053       547.5549       0.33933469   
  76590000   319.31062      0              262.84431      545.5302       0.1123748    
  76600000   289.87565      0              270.69353      527.32061      0.30984589   
  76610000   298.97483      0              265.5279       530.21049     -0.8727245    
  76620000   292.55666      0              254.78597      513.78656     -0.65086383   
  76630000   328.6085       0              283.02928      573.94657      0.41172959   
  76640000   303.68023      0              250.90483      519.75311      0.14323144   
  76650000   286.3432       0              271.81448      525.31428     -0.33392797   
  76660000   302.45773      0              268.29749      536.06349     -0.31157831   
  76670000   280.48076      0              248.94872      497.2585       1.0009152    
  76680000   318.38135      0              276.76178      558.62498     -1.068736     
  76690000   313.46898      0              261.71256      539.22683     -0.11721393   
  76700000   298.10237      0              269.59079      533.50099      0.9571954    
  76710000   302.38318      0              279.46056      547.16057     -0.59443484   
  76720000   302.06931      0              250.55667      517.97881      1.5258817    
  76730000   316.65492      0              252.38448      532.71926     -0.37876087   
  76740000   302.00408      0              256.87654      524.24093      0.87784589   
  76750000   303.23389      0              265.19776      533.65091      0.0087051399 
  76760000   306.01315      0              267.59259      538.50622      1.4150254    
  76770000   320.84118      0              239.30038      523.34127     -0.75619315   
  76780000   298.32458      0              244.2693       508.37623     -1.7739856    
  76790000   273.49386      0              282.3857       524.50998      0.40863225   
  76800000   300.95196      0              287.58924      554.02219     -1.6993506    
  76810000   307.49351      0              271.40847      543.63265      1.2362771    
  76820000   289.67507      0              272.88581      529.33532     -1.7025811    
  76830000   290.89557      0              247.27921      504.80923     -0.87295726   
  76840000   299.7305       0              255.43106      520.78265     -0.2087728    
  76850000   285.17551      0              272.01935      524.48539      0.96547952   
  76860000   287.68785      0              269.53936      524.22958     -1.1372504    
  76870000   307.1003       0              269.64057      541.51665      0.38752504   
  76880000   306.054        0              266.97278      537.92257      0.35223071   
  76890000   312.77294      0              262.56161      539.45967     -0.34559259   
  76900000   273.49198      0              267.7147       509.83731      0.53223549   
  76910000   285.64599      0              270.78096      523.66352     -1.0519332    
  76920000   322.99417      0              257.20264      543.14957     -0.28857565   
  76930000   293.1213       0              253.42629      512.92675      1.1971796    
  76940000   297.61018      0              255.10798      518.58245      2.3139768    
  76950000   318.31603      0              263.89339      545.69876      1.0270617    
  76960000   284.01472      0              268.05019      519.48858      2.1875386    
  76970000   304.41487      0              260.49085      529.98951     -0.44540266   
  76980000   320.28538      0              279.11234      562.66117      0.89077803   
  76990000   285.01596      0              284.57704      536.90184     -0.48465174   
  77000000   304.72553      0              260.31214      530.08582     -0.46749398   
  77010000   289.74133      0              267.02253      523.5307      -0.68138516   
  77020000   318.64791      0              277.93152      560.0307      -1.1425927    
  77030000   293.28124      0              281.11994      540.76199      0.8906777    
  77040000   289.04709      0              275.17462      531.06817     -1.4306824    
  77050000   304.881        0              255.06894      524.98027     -0.78245457   
  77060000   284.6737       0              248.98875      501.01054     -0.31141449   
  77070000   302.43025      0              276.56253      544.30422      1.4845132    
  77080000   296.96361      0              263.64739      526.54945     -0.11868942   
  77090000   291.3835       0              275.95043      533.91242     -1.0193441    
  77100000   274.31827      0              263.54429      506.39841     -0.32079612   
  77110000   307.07911      0              271.24713      543.10444     -0.82488801   
  77120000   312.76321      0              282.00468      558.89413      0.98108422   
  77130000   278.01274      0              258.37891      504.50376     -0.3093263    
  77140000   315.34614      0              270.24377      549.4199      -0.10139163   
  77150000   280.67358      0              280.96395      529.44444     -0.20003549   
  77160000   313.01758      0              250.13619      527.25084      0.45163823   
  77170000   292.98263      0              266.82852      526.20622      1.8846928    
  77180000   290.44469      0              258.0775       515.20835      0.1692885    
  77190000   293.46883      0              232.60765      492.41577      0.37581523   
  77200000   319.92838      0              260.75308      543.98586      1.123796     
  77210000   308.99864      0              257.76336      531.32004      0.90837805   
  77220000   294.53173      0              257.61544      518.36455      0.67499795   
  77230000   300.47904      0              261.69132      527.7056      -0.58454769   
  77240000   312.11082      0              260.24138      536.55327      0.5912212    
  77250000   287.46938      0              270.92065      525.41746      0.13797899   
  77260000   314.94144      0              261.97726      540.79511      0.050624107  
  77270000   302.28305      0              272.48242      540.09378      0.02467562   
  77280000   286.0949       0              251.84699      505.12697     -0.29859727   
  77290000   293.47018      0              256.62073      516.43005      0.67520459   
  77300000   307.2248       0              276.37672      548.36302      2.0562053    
  77310000   284.7371       0              255.96456      508.04248     -0.88395033   
  77320000   326.80677      0              256.15579      545.47801      0.38916035   
  77330000   329.10169      0              252.7131       544.06702      0.42948732   
  77340000   296.20104      0              261.6925       523.91945     -0.99610164   
  77350000   288.0144       0              238.55275      493.53207     -0.94218174   
  77360000   308.81385      0              255.23824      528.63132      0.44401017   
  77370000   285.41316      0              248.04016      500.7166      -1.0505588    
  77380000   293.07675      0              294.76074      554.22176      0.57263572   
  77390000   317.81509      0              251.89404      533.25593     -0.10601318   
  77400000   308.13985      0              258.00442      530.80081      1.2444852    
  77410000   288.83972      0              247.60736      503.31733      0.068215854  
  77420000   297.39601      0              253.0721       516.35696     -0.99462469   
  77430000   270.15342      0              264.1247       503.29169      0.3449435    
  77440000   289.18407      0              263.99655      520.01138     -0.41252125   
  77450000   292.69003      0              278.03498      537.15363      0.66513767   
  77460000   299.88634      0              282.83762      548.32718      1.5858613    
  77470000   283.20106      0              274.38179      525.09985     -0.57834475   
  77480000   303.69819      0              259.31289      528.17707     -1.431365     
  77490000   294.42348      0              274.34474      534.99802     -1.0669114    
  77500000   290.12615      0              269.74397      526.59282      0.46166      
  77510000   258.38651      0              270.04572      498.79545      0.22103126   
  77520000   293.0165       0              269.16469      528.57237     -1.1494931    
  77530000   285.3367       0              269.54657      522.15532      0.72949931   
  77540000   295.09333      0              243.39509      504.64139      1.5011757    
  77550000   283.09165      0              252.39648      503.01769     -0.70058454   
  77560000   283.40371      0              285.68791      536.58538      0.67318164   
  77570000   332.51719      0              259.59233      553.97         2.051606     
  77580000   281.97789      0              255.11661      504.7518       0.76075604   
  77590000   313.09886      0              259.1112       536.2978       0.83665066   
  77600000   282.49737      0              264.15865      514.25374      0.084728425  
  77610000   291.49629      0              243.97313      502.03497     -2.0335498    
  77620000   315.50448      0              260.64646      539.96276     -0.41053693   
  77630000   312.04243      0              271.29687      547.54822     -1.6806172    
  77640000   295.27726      0              278.72385      540.13298     -0.2974095    
  77650000   320.25231      0              257.35102      540.87058      0.099416994  
  77660000   324.07078      0              236.71062      523.61067      2.1853927    
  77670000   314.95186      0              252.87905      531.70612     -1.4198335    
  77680000   297.2528       0              277.46027      540.61835      0.57722552   
  77690000   263.44464      0              233.75856      466.98625      0.67558943   
  77700000   273.55835      0              257.36644      499.5478      -0.28982286   
  77710000   268.48545      0              277.27222      514.96254     -1.1465799    
  77720000   301.12548      0              273.70822      540.29478     -1.0616372    
  77730000   302.21049      0              283.48567      551.03279      0.30410587   
  77740000   280.0325       0              259.85874      507.77168      1.2364638    
  77750000   287.79689      0              275.74055      530.5273      -0.16869792   
  77760000   298.87253      0              257.23462      521.82665      0.61813739   
  77770000   295.71452      0              252.97699      514.77323     -1.3823083    
  77780000   282.51383      0              249.53773      499.6474       0.32383618   
  77790000   335.61858      0              262.31008      559.4334       0.6984665    
  77800000   296.57643      0              271.13298      533.69227      0.88480161   
  77810000   283.25329      0              243.85378      494.61808      1.0020267    
  77820000   283.04114      0              241.86402      492.44051      1.0334888    
  77830000   307.35439      0              266.87403      538.97505     -0.59761334   
  77840000   295.56122      0              286.31947      547.98         0.010223049  
  77850000   291.02025      0              252.73823      510.37862      0.080800091  
  77860000   297.58627      0              265.98352      529.43682      0.29749906   
  77870000   321.12944      0              247.67366      531.96975      0.50301926   
  77880000   269.17028      0              257.60857      495.90518      0.18727595   
  77890000   298.92756      0              272.99457      537.63531      1.2694975    
  77900000   309.32389      0              274.99644      548.84107      0.51522576   
  77910000   308.61625      0              267.24482      540.46297      0.49169811   
  77920000   309.87778      0              268.83157      543.16655      0.57262316   
  77930000   290.97179      0              274.66144      532.25893      0.47648024   
  77940000   315.31925      0              266.34966      545.50198      1.0908479    
  77950000   316.06304      0              281.00942      560.82022      0.98904377   
  77960000   305.47903      0              263.69722      534.13799     -0.58823288   
  77970000   310.57838      0              258.00535      532.96057     -1.0573282    
  77980000   284.44164      0              259.24293      511.05928      0.22914474   
  77990000   327.67708      0              246.67927      536.77197      0.41199946   
  78000000   276.9744       0              276.9661       522.1717       1.1140383    
  78010000   305.36042      0              273.04876      543.38451      0.81448405   
  78020000   309.17682      0              244.90776      518.62218      1.2542718    
  78030000   281.95084      0              271.75134      521.36258     -0.60361966   
  78040000   283.14468      0              260.73375      511.4019       1.0279578    
  78050000   283.76208      0              249.44577      500.66051      1.4304716    
  78060000   285.70178      0              266.30508      519.23704     -0.09744135   
  78070000   287.42445      0              272.92657      527.38361     -1.8887603    
  78080000   280.70915      0              268.35204      516.86402      1.4641002    
  78090000   302.83187      0              250.72143      518.81866      1.9102688    
  78100000   287.26233      0              263.68556      517.99907     -1.6456254    
  78110000   265.67363      0              241.17631      476.37733      0.86044718   
  78120000   296.58377      0              276.6761       539.24188     -0.78692545   
  78130000   306.01568      0              260.09588      531.01173      1.7121137    
  78140000   289.49442      0              280.31041      536.59998     -0.25826556   
  78150000   291.13938      0              260.31812      518.06398      0.47271265   
  78160000   340.18143      0              276.17361      577.33643     -0.14507207   
  78170000   311.04757      0              284.47162      559.84222      0.5952741    
  78180000   306.35171      0              273.19793      544.41128      1.6561004    
  78190000   272.65151      0              267.68832      509.06686      0.84968702   
  78200000   299.69391      0              272.40307      537.72226     -0.24686517   
  78210000   292.10392      0              264.92127      523.52104     -1.0994005    
  78220000   277.69134      0              254.76132      500.60162      0.36616344   
  78230000   299.84039      0              288.51734      553.96621     -1.5056459    
  78240000   312.08204      0              256.73863      533.02504      0.16799201   
  78250000   333.05566      0              263.7045       558.55887      0.85421815   
  78260000   321.845        0              261.94647      546.87603      0.29177575   
  78270000   317.99356      0              275.8265       557.34638      1.9744261    
  78280000   297.96983      0              242.34892      506.14179      0.46500546   
  78290000   289.72217      0              256.13661      512.62782     -0.48028184   
  78300000   284.31155      0              245.13493      496.83611     -0.73587596   
  78310000   302.6035       0              260.00214      527.89719      0.45927332   
  78320000   301.87934      0              276.52162      543.77558     -2.1881301    
  78330000   295.49764      0              275.22467      536.8289      -0.67625423   
  78340000   314.19814      0              264.93247      543.09226      0.17141185   
  78350000   297.72013      0              245.33293      508.90474      0.80510749   
  78360000   310.67828      0              266.18943      541.23309     -0.43515159   
  78370000   298.81402      0              254.05746      518.59769      0.61171283   
  78380000   326.67024      0              251.24294      540.44429     -0.12602101   
  78390000   272.57847      0              268.72529      510.03917      0.02457827   
  78400000   312.9026       0              249.9679       526.98075     -0.094972868  
  78410000   318.80683      0              267.65045      549.89032     -0.93564843   
  78420000   305.02649      0              272.07736      542.11748     -0.79743141   
  78430000   286.74536      0              256.97052      510.82636      0.50439319   
  78440000   299.14989      0              271.75412      536.59169      0.77889418   
  78450000   297.94556      0              264.73633      528.50771      0.10068017   
  78460000   301.50145      0              267.0666       533.986        1.0022324    
  78470000   310.6054       0              269.09588      544.07503      2.0317952    
  78480000   334.20861      0              263.07426      558.94934      2.074985     
  78490000   306.35704      0              255.43259      526.65065     -0.35347538   
  78500000   282.25716      0              272.09683      521.97926     -0.23621277   
  78510000   304.3885       0              276.49334      545.96866      1.188595     
  78520000   280.96646      0              261.58845      510.32822     -0.79001779   
  78530000   343.16541      0              262.48902      566.29357      0.18630992   
  78540000   310.774        0              260.26957      535.39798      1.6660797    
  78550000   280.09794      0              257.38918      505.36005      1.1011884    
  78560000   300.77185      0              274.97194      541.24544      1.2372362    
  78570000   307.07903      0              259.95392      531.81116      1.5468506    
  78580000   329.24508      0              256.4006       547.88146     -0.0037424272 
  78590000   303.05681      0              257.26326      525.55963      0.38053208   
  78600000   300.55586      0              277.43225      543.51453     -2.1120021    
  78610000   283.03927      0              250.61727      501.19209     -0.67519347   
  78620000   282.41476      0              255.49271      505.51466      0.13595456   
  78630000   298.80114      0              273.73366      538.26248      0.046107568  
  78640000   291.8659       0              262.9128       521.30185     -0.32744521   
  78650000   296.33489      0              256.55667      518.90212      0.55635554   
  78660000   309.55546      0              261.88475      535.93438     -0.49879442   
  78670000   287.97477      0              247.50645      502.45069     -2.0675259    
  78680000   286.09084      0              268.89846      522.17484     -1.0386746    
  78690000   301.30815      0              262.81022      529.5585      -2.0152806    
  78700000   297.57523      0              246.03712      509.48064     -0.32151433   
  78710000   312.25744      0              258.21932      534.66101      1.2177397    
  78720000   298.88014      0              293.60166      558.20043      0.82196031   
  78730000   313.35027      0              244.8193       522.22847      0.24408926   
  78740000   289.7732       0              265.35523      521.89161     -0.92890749   
  78750000   293.28042      0              252.07886      511.72018     -0.48775507   
  78760000   296.70263      0              279.82105      542.49207      1.4916953    
  78770000   309.22403      0              259.23044      532.98666     -1.3810945    
  78780000   306.8344       0              271.62135      543.26203     -0.61234096   
  78790000   301.06013      0              248.86957      515.39828     -1.7413062    
  78800000   320.95874      0              265.86122      550.00619      1.2094352    
  78810000   317.6046       0              252.38961      533.56515     -0.04766416   
  78820000   321.93239      0              258.83655      543.84348      1.4435074    
  78830000   300.21909      0              247.01534      512.79947      1.0487772    
  78840000   297.02481      0              277.28365      540.23989     -2.5087442    
  78850000   309.70173      0              277.64283      551.82194     -0.031335217  
  78860000   323.07879      0              275.40924      561.43108     -0.91821387   
  78870000   310.19794      0              272.83192      547.45034     -1.1486794    
  78880000   294.34294      0              258.92258      519.50456      0.30775788   
  78890000   299.56992      0              262.4034       527.61283      0.56620356   
  78900000   326.9547       0              254.33154      543.78472      1.8552572    
  78910000   281.30995      0              271.89262      520.93648      0.60284735   
  78920000   304.81239      0              269.00227      538.85286      1.2106743    
  78930000   304.80601      0              276.17357      546.01851     -0.84270612   
  78940000   325.85373      0              268.68849      557.16698     -0.48608128   
  78950000   305.46935      0              272.92072      543.35292      0.25952525   
  78960000   287.08802      0              250.89329      505.05249      1.4070759    
  78970000   303.29412      0              258.15965      526.66611     -1.4527735    
  78980000   309.45528      0              264.62105      538.58199     -0.70073367   
  78990000   279.53678      0              260.89177      508.36584     -1.0407309    
  79000000   285.15053      0              246.1155       498.55943     -1.3459512    
  79010000   307.76242      0              243.18401      515.64626      0.43510696   
  79020000   290.41575      0              270.86058      527.96581     -0.66795338   
  79030000   294.45881      0              295.29675      555.9813      -0.3401031    
  79040000   286.23001      0              249.75581      503.15541      1.0759472    
  79050000   310.49496      0              261.37422      536.25559     -0.34025052   
  79060000   314.37334      0              246.75373      525.06863     -0.0097987822 
  79070000   308.63319      0              257.39773      530.63087     -1.2038737    
  79080000   310.08592      0              267.79953      542.31877      0.14356615   
  79090000   288.3887       0              259.9907       515.30138      0.055952463  
  79100000   277.85943      0              265.86351      511.85263      0.07193506   
  79110000   276.04765      0              263.40991      507.79505     -1.1630279    
  79120000   315.22723      0              270.4495       549.52035     -1.8731847    
  79130000   303.05832      0              259.7016       527.9993       1.2584867    
  79140000   292.35482      0              275.30139      534.12329      0.099751249  
  79150000   293.43971      0              277.3472       537.12955     -0.7618862    
  79160000   317.90375      0              251.60031      533.04069      0.56356379   
  79170000   282.40833      0              269.41764      519.4339      -2.4434824    
  79180000   279.35272      0              268.883        516.19413     -1.0912377    
  79190000   298.36489      0              257.64348      521.78609     -0.45601143   
  79200000   317.4698       0              262.50871      543.56492     -1.0486429    
  79210000   311.8889       0              267.01435      543.12977      2.1774723    
  79220000   306.29322      0              257.79808      528.95965     -0.35950333   
  79230000   291.54417      0              285.35741      543.46164      0.45452797   
  79240000   345.59946      0              283.50634      589.46574      0.14566701   
  79250000   279.72949      0              258.4938       506.13848     -0.51851803   
  79260000   302.07468      0              281.19525      548.62215      2.5721228    
  79270000   313.21025      0              255.36242      532.64764      0.28969456   
  79280000   282.32815      0              264.7002       514.64548     -0.37964418   
  79290000   296.98037      0              258.6227       521.53959      0.67501571   
  79300000   310.57165      0              236.23598      511.18524      0.3602697    
  79310000   308.91124      0              271.69218      545.17148     -0.9325291    
  79320000   311.21609      0              260.61947      536.13926      0.61297883   
  79330000   327.93836      0              260.87004      551.19406      0.85088643   
  79340000   329.05406      0              272.86155      564.1733      -0.25624021   
  79350000   324.98291      0              268.93117      556.63873     -1.9251127    
  79360000   286.08556      0              264.25907      517.53079     -0.47566104   
  79370000   300.34495      0              249.52063      515.41619     -0.83520841   
  79380000   297.92993      0              254.27427      518.03181     -0.24395961   
  79390000   306.98036      0              268.76202      540.53191      0.40627594   
  79400000   296.1432       0              270.97485      533.1506       1.1605949    
  79410000   294.7033       0              266.55963      527.46063      1.2474072    
  79420000   285.61228      0              264.28819      517.14091      1.4636415    
  79430000   312.92416      0              264.87985      541.91179      1.7933526    
  79440000   316.29417      0              254.28629      534.30171     -1.0527263    
  79450000   295.06677      0              251.44742      512.6702       1.1319395    
  79460000   310.72757      0              254.07353      529.16083      0.038265963  
  79470000   289.23134      0              244.08247      500.13915     -0.324676     
  79480000   316.34539      0              274.35379      554.41454      1.8950285    
  79490000   298.22277      0              269.88844      533.90523      1.1824409    
  79500000   299.71625      0              260.69396      526.03293     -0.012863763  
  79510000   279.73012      0              268.7976       516.44284     -0.49211836   
  79520000   298.25708      0              262.45483      526.502       -0.78261803   
  79530000   292.48521      0              260.39949      519.33682      3.5310692    
  79540000   295.0665       0              255.9152       517.13774      1.7578221    
  79550000   269.78439      0              261.12453      499.9648      -1.2998751    
  79560000   293.47339      0              271.42816      531.24033      0.59893174   
  79570000   293.20609      0              260.32591      519.90143      0.33403434   
  79580000   293.84695      0              278.40175      538.54462      1.0633952    
  79590000   296.5748       0              277.29941      539.85726     -1.717945     
  79600000   309.38488      0              273.03575      546.93437     -0.56456142   
  79610000   280.69071      0              247.31695      495.81259     -0.37132172   
  79620000   298.95775      0              286.02863      550.6961      -1.0698287    
  79630000   289.99958      0              251.52442      508.26121      1.2177476    
  79640000   283.40174      0              245.36235      496.25807     -0.85758439   
  79650000   320.43961      0              255.77698      539.46235     -1.8596706    
  79660000   288.2196       0              251.7082       506.86918      2.2447781    
  79670000   310.81425      0              270.62211      545.78615     -0.48974234   
  79680000   297.77682      0              276.5127       540.13469      0.55247412   
  79690000   315.99759      0              257.50327      537.25612      0.19220654   
  79700000   296.29879      0              242.65341      504.9669       0.32526434   
  79710000   284.15616      0              243.4934       495.05701     -0.83389386   
  79720000   321.04624      0              252.67831      536.90074      0.058200705  
  79730000   266.09933      0              280.6711       516.24899     -0.34968207   
  79740000   327.70301      0              253.46192      543.57759      1.6015369    
  79750000   313.1639       0              282.23134      559.47552      0.10339408   
  79760000   302.36967      0              265.18059      532.86863      0.48655044   
  79770000   294.29647      0              269.67567      530.21651     -0.50902336   
  79780000   326.11838      0              270.89616      559.60896     -1.8612227    
  79790000   301.51717      0              255.6142       522.54753     -0.72161558   
  79800000   296.82567      0              260.59916      523.3791      -0.023593464  
  79810000   330.66677      0              252.84453      545.58402      0.15200132   
  79820000   310.53102      0              260.4812       535.39449     -0.21309925   
  79830000   306.64825      0              268.41204      539.88791     -0.856122     
  79840000   295.70808      0              254.54719      516.33773     -1.9878425    
  79850000   307.42024      0              299.18078      571.3401       1.024801     
  79860000   309.75208      0              280.6832       554.90689      0.4041885    
  79870000   291.19499      0              274.05401      531.8491       2.3216995    
  79880000   286.35954      0              265.35719      518.87146      1.7353504    
  79890000   298.2037       0              263.02485      527.02476      0.52738307   
  79900000   303.45796      0              274.09728      542.74879      0.64149627   
  79910000   272.81         0              262.23515      503.754        0.20797301   
  79920000   304.31733      0              273.75812      543.17043      1.7747902    
  79930000   292.50052      0              265.23842      524.1893       1.9980249    
  79940000   300.90249      0              268.92384      535.31299      1.2159067    
  79950000   299.37005      0              273.89906      538.93155     -0.55839156   
  79960000   291.95822      0              260.49846      518.96924      1.1807713    
  79970000   300.33646      0              274.65068      540.53873     -1.3475762    
  79980000   305.31444      0              252.94515      523.24021      0.13809436   
  79990000   305.89386      0              265.32019      536.12821      1.3044902    
  80000000   306.78273      0              290.46815      562.06308      2.3958708    
  80010000   303.43033      0              251.40282      520.02987     -0.28458936   
  80020000   282.50664      0              250.43477      500.53806      0.62032375   
  80030000   315.79143      0              259.34733      538.91767      0.15026826   
  80040000   304.55836      0              265.79773      535.42342     -0.90957936   
  80050000   301.63601      0              259.66974      526.70828      0.66826844   
  80060000   293.99768      0              265.5626       525.83892      1.1128537    
  80070000   317.17685      0              252.4525       533.24935      0.75232739   
  80080000   300.69784      0              254.61051      520.81848     -1.0163228    
  80090000   303.70919      0              237.70807      506.582        1.432107     
  80100000   283.34243      0              264.74811      515.59133      1.5104309    
  80110000   306.9594       0              257.14383      528.89516     -0.26326719   
  80120000   305.00537      0              263.83011      533.85154      1.8895462    
  80130000   312.74857      0              252.08239      528.95888      1.3295617    
  80140000   289.21155      0              259.28632      515.32548      1.489056     
  80150000   305.23589      0              258.60844      528.83395     -0.33346279   
  80160000   319.20694      0              264.84225      547.43634      0.044128802  
  80170000   318.19548      0              262.08246      543.7811       0.17508792   
  80180000   292.4931       0              269.38045      528.32477     -0.19269757   
  80190000   311.42277      0              244.17427      519.87702      1.674964     
  80200000   278.3357       0              265.24463      511.65538      1.7648538    
  80210000   282.18572      0              276.16989      525.98907     -0.19680364   
  80220000   314.55606      0              286.52484      565.0015       1.4887934    
  80230000   299.49422      0              258.74378      523.88618      0.35709057   
  80240000   288.72782      0              256.74938      512.36029      0.7263929    
  80250000   288.49928      0              253.38996      508.79854     -1.4039281    
  80260000   305.73678      0              280.12675      550.7957      -0.96867243   
  80270000   303.44841      0              286.53077      555.17382     -1.7070125    
  80280000   314.09097      0              280.86946      558.93438      1.930938     
  80290000   276.87325      0              262.31485      507.4309       1.0936684    
  80300000   297.26087      0              285.74558      548.91081     -0.70244617   
  80310000   304.85544      0              260.93335      530.82205     -1.1762864    
  80320000   299.5442       0              253.78324      518.9699      -0.31776045   
  80330000   289.62137      0              269.09735      525.49932     -2.1804316    
  80340000   286.64148      0              262.32621      516.09008     -0.37494538   
  80350000   292.45191      0              276.9919       535.89975     -2.0363549    
  80360000   282.43428      0              264.08473      514.12396      0.7564003    
  80370000   299.23296      0              254.03588      518.94699     -1.5908003    
  80380000   301.39631      0              261.26622      528.09255      0.71104432   
  80390000   342.1678       0              295.36921      598.29057     -0.99010779   
  80400000   304.10347      0              242.43881      511.66179      0.91248126   
  80410000   314.47778      0              275.44535      553.85272      0.54353157   
  80420000   298.80146      0              250.40274      514.93185      0.19164605   
  80430000   291.95638      0              268.41615      526.8853      -0.25733955   
  80440000   288.8884       0              265.86145      521.61452     -1.7572114    
  80450000   310.85056      0              270.62648      545.82266      0.76586792   
  80460000   296.72009      0              264.8061       527.49257     -1.3713241    
  80470000   320.05583      0              269.41526      552.76087     -0.91529793   
  80480000   282.66183      0              289.56176      539.80244     -1.3968482    
  80490000   312.40997      0              257.38717      533.9639      -0.89028128   
  80500000   285.99506      0              246.75247      499.94407      1.2746409    
  80510000   321.7286       0              250.65249      535.47901      1.234728     
  80520000   301.60329      0              272.41223      539.4218      -1.6484542    
  80530000   324.4216       0              266.75463      553.96526      0.3923071    
  80540000   299.6704       0              254.21431      519.51269     -1.3798462    
  80550000   279.9503       0              263.25587      511.09603      0.2291638    
  80560000   294.8731       0              264.27127      525.3226      -0.51920551   
  80570000   299.83566      0              274.36059      539.80528      0.35395838   
  80580000   299.53793      0              281.41005      546.59115      0.062830918  
  80590000   305.62531      0              262.3188       532.88906     -0.82241132   
  80600000   278.90943      0              253.455        500.37369      0.56165822   
  80610000   285.70924      0              272.08788      525.02644     -0.79694923   
  80620000   301.64576      0              262.71953      529.76669     -2.3090296    
  80630000   311.80803      0              252.35483      528.39866     -0.55557998   
  80640000   277.65581      0              267.67336      513.48221     -2.3385012    
  80650000   304.11616      0              265.28147      534.51568      0.61673778   
  80660000   301.97506      0              255.04228      522.38097     -0.97506094   
  80670000   290.52584      0              266.54987      523.75257      0.49357842   
  80680000   300.70521      0              262.01858      528.23309      0.28868686   
  80690000   286.88081      0              248.07155      502.04731     -0.23312123   
  80700000   295.50018      0              279.93139      541.53787     -0.52156605   
  80710000   292.92885      0              276.48992      535.82         2.4182388    
  80720000   299.85016      0              265.23847      530.696       -0.50181519   
  80730000   312.06235      0              265.9892       542.25818     -1.3345634    
  80740000   307.32091      0              280.21175      552.28313      0.49992555   
  80750000   321.19942      0              254.63012      538.98815     -0.72931313   
  80760000   304.43107      0              253.95707      523.47008     -0.31527812   
  80770000   308.78808      0              256.32497      529.69523      2.9258212    
  80780000   290.33268      0              245.43998      502.47166     -0.31430695   
  80790000   274.96076      0              270.39385      513.81677      0.15778775   
  80800000   299.70749      0              260.58756      525.91877     -1.1432873    
  80810000   299.49821      0              250.37918      515.52512     -0.56300592   
  80820000   308.50193      0              262.65885      535.77579     -0.31941395   
  80830000   287.11159      0              239.6344       493.81446     -1.6310776    
  80840000   303.24577      0              274.79759      543.26125      0.081442105  
  80850000   297.35585      0              259.10818      522.3575       0.76086506   
  80860000   302.67224      0              229.99523      497.95114     -0.39867722   
  80870000   325.97515      0              282.13129      570.71728     -0.88179448   
  80880000   297.49343      0              281.81118      545.18229      0.20461061   
  80890000   300.20729      0              253.93499      519.70867      0.7959838    
  80900000   299.79424      0              250.82331      516.23133     -0.69829876   
  80910000   308.52621      0              270.35544      543.49387     -0.16370323   
  80920000   286.2626       0              287.63984      541.06829     -0.65961428   
  80930000   299.29412      0              290.50293      555.46819     -2.2471753    
  80940000   300.30145      0              248.69722      514.55427      0.62292941   
  80950000   312.89082      0              291.42034      568.42276      0.53210643   
  80960000   303.42961      0              261.21779      529.8442      -1.372396     
  80970000   281.90657      0              278.46338      528.03543     -1.2181915    
  80980000   278.78243      0              271.28954      518.09579      1.7799762    
  80990000   309.63406      0              256.05013      530.16934      1.2678337    
  81000000   305.77006      0              282.43931      553.13772      1.1078391    
  81010000   286.28707      0              259.4973       512.94742      0.37874439   
  81020000   284.89956      0              277.94142      530.16317     -0.24769731   
  81030000   295.74825      0              268.53751      530.36361     -0.5506504    
  81040000   308.14809      0              291.47229      564.27598      0.23256216   
  81050000   292.44254      0              247.75585      506.6554       0.18015443   
  81060000   303.93774      0              289.15783      558.23409      0.68396382   
  81070000   300.65024      0              256.0792       522.24503      0.19381716   
  81080000   330.3699       0              247.73734      540.214       -0.4426365    
  81090000   299.52206      0              265.18994      530.357        0.33664519   
  81100000   299.87488      0              257.65003      523.12943      0.96927537   
  81110000   294.54654      0              264.51937      525.28159      0.72572039   
  81120000   286.09758      0              262.89665      516.17901     -0.90433486   
  81130000   285.44525      0              269.46663      522.17147     -0.0070481732 
  81140000   318.19607      0              245.26855      526.96771      1.1321957    
  81150000   307.63614      0              291.73923      564.08969     -1.7206022    
  81160000   289.34674      0              265.3045       521.46333     -0.19217488   
  81170000   293.42373      0              259.21585      518.98405      0.70949303   
  81180000   288.03702      0              290.06462      545.06396      0.55793516   
  81190000   287.93593      0              250.28816      505.19801     -0.88075658   
  81200000   292.49164      0              269.3411       528.28412      0.90159005   
  81210000   289.71784      0              267.16157      523.64894     -1.3624681    
  81220000   294.94692      0              288.19184      549.30852     -0.95850173   
  81230000   304.13649      0              248.43118      517.68339      0.8976792    
  81240000   286.64711      0              266.32111      520.08996      0.86323188   
  81250000   311.2682       0              246.66139      522.22731      0.61452052   
  81260000   286.9946       0              270.64431      524.7208      -0.10661128   
  81270000   281.11602      0              254.79138      503.66355     -0.28104347   
  81280000   275.31868      0              266.56475      510.30454      0.041130074  
  81290000   311.25782      0              284.29597      559.85269     -0.98269928   
  81300000   308.88717      0              271.9102       545.36819     -0.53871953   
  81310000   293.28666      0              273.05662      532.70347      0.068043538  
  81320000   307.9988       0              254.49521      527.16672      0.36050812   
  81330000   283.97731      0              247.68538      499.09066      1.0108345    
  81340000   295.03673      0              272.37794      533.57413     -0.33939242   
  81350000   317.81509      0              287.58445      568.94634     -0.28564532   
  81360000   309.5491       0              280.52329      554.56729      0.53280419   
  81370000   299.08282      0              283.45186      548.23005     -0.15365216   
  81380000   298.07553      0              259.09443      522.98087      0.44633168   
  81390000   303.36568      0              256.45359      525.0234       2.1609654    
  81400000   294.1668       0              247.39868      507.82472     -1.5042314    
  81410000   333.49538      0              263.68628      558.92993      0.11984297   
  81420000   345.19215      0              263.32193      568.92074      0.024029647  
  81430000   286.95472      0              262.95912      517.0003       1.4076111    
  81440000   302.3292       0              259.22455      526.87677      1.1862567    
  81450000   281.8448       0              268.94973      518.4671      -1.1051513    
  81460000   280.56608      0              248.37764      496.76295      0.82601207   
  81470000   317.03831      0              254.13232      534.80652      1.2050328    
  81480000   278.12906      0              246.87021      493.09803      0.96954593   
  81490000   291.36964      0              267.05398      525.00369     -1.7590745    
  81500000   304.70554      0              298.59776      568.35376     -0.5381396    
  81510000   340.97264      0              259.25513      561.1184       2.1840561    
  81520000   293.30601      0              284.06206      543.72604     -0.32004172   
  81530000   289.33793      0              244.81361      500.96465      0.79952926   
  81540000   287.73641      0              248.20479      502.93801     -1.7153127    
  81550000   283.62523      0              269.08586      520.17944     -0.31219542   
  81560000   310.99136      0              272.61388      547.93471      1.5465284    
  81570000   287.40304      0              275.12768      529.56576      1.7320936    
  81580000   307.79417      0              251.10739      523.59774     -1.5498994    
  81590000   295.52226      0              283.02669      544.65271      0.8769617    
  81600000   304.80777      0              284.46378      554.31028     -0.81212031   
  81610000   285.21317      0              264.49666      516.99604      0.67845403   
  81620000   298.92564      0              261.30725      525.94629      1.5531658    
  81630000   321.04754      0              258.91922      543.14279      1.7157558    
  81640000   296.56422      0              267.8583       530.40678     -0.75809378   
  81650000   278.19935      0              264.40876      510.69881      0.70442251   
  81660000   300.83047      0              297.77179      564.09718      0.91173886   
  81670000   304.80064      0              273.79307      543.63325      1.1799924    
  81680000   288.19263      0              286.53864      541.67574      2.3349391    
  81690000   300.57048      0              269.56372      535.65894      0.29702591   
  81700000   274.31399      0              261.00054      503.85088     -1.4029218    
  81710000   310.72629      0              270.2317       545.31787     -0.030040584  
  81720000   277.87887      0              253.38116      499.38749      1.3984908    
  81730000   306.78432      0              255.10193      526.69827      0.63146362   
  81740000   302.55121      0              264.97245      532.82122      0.0037620396 
  81750000   299.52626      0              248.86782      514.03859      2.0362818    
  81760000   277.98802      0              281.30847      527.41143     -0.47368193   
  81770000   302.13218      0              249.07513      516.55293      0.98907645   
  81780000   302.41094      0              291.6966       559.42118     -0.53647425   
  81790000   308.22798      0              261.76615      534.64056      0.353073     
  81800000   261.85604      0              284.55324      516.37454     -0.82348069   
  81810000   291.96446      0              275.52093      533.99724     -0.4390321    
  81820000   308.11165      0              249.54048      522.3119      -0.31161904   
  81830000   305.10931      0              289.06515      559.1786       0.37775433   
  81840000   282.45059      0              269.85846      519.91214      1.1616137    
  81850000   279.51323      0              266.73963      514.19286     -1.0243581    
  81860000   279.93839      0              262.08928      509.9189       1.4223219    
  81870000   286.87372      0              261.62608      515.59556     -1.7177577    
  81880000   306.79405      0              241.58804      513.193        0.69743799   
  81890000   287.95537      0              260.67177      515.59883     -0.74568149   
  81900000   322.63148      0              289.4143       575.04014      2.0557128    
  81910000   300.55584      0              282.35283      548.4351       0.94706531   
  81920000   295.13127      0              258.60269      519.88257      1.0431803    
  81930000   306.12056      0              267.1197       538.12842      0.16192242   
  81940000   312.4207       0              257.46035      534.04657      0.74430014   
  81950000   292.05056      0              248.0664       506.61894      1.3597881    
  81960000   323.10787      0              268.20571      554.25329     -1.2379755    
  81970000   291.35716      0              253.37438      511.31304     -0.57677575   
  81980000   322.4101       0              281.81505      567.24491     -0.61712354   
  81990000   321.95125      0              243.58587      528.6095      -1.727731     
  82000000   302.68827      0              255.24242      523.21252      0.85672546   
  82010000   284.00233      0              244.14054      495.56797     -1.3739662    
  82020000   290.96555      0              248.1141       505.70607      1.3051905    
  82030000   314.19862      0              276.89802      555.05824      0.25862477   
  82040000   289.67129      0              279.41728      535.86344     -0.34541802   
  82050000   285.01574      0              252.34528      504.66988      0.29168545   
  82060000   290.72914      0              246.72257      504.10525     -0.086690227  
  82070000   315.63678      0              280.58751      560.02094      0.65262579   
  82080000   296.99755      0              268.08595      531.01805      0.71525338   
  82090000   333.28622      0              252.74941      547.8079       0.17487646   
  82100000   312.65014      0              250.69126      527.48061     -1.6496079    
  82110000   310.22979      0              251.27664      525.92326     -1.2210122    
  82120000   305.21155      0              287.72209      557.92605     -0.18639238   
  82130000   289.57088      0              258.27744      514.63471      0.14487837   
  82140000   315.8          0              248.87865      528.45657      0.53871896   
  82150000   328.74712      0              267.86313      558.90314     -0.18484774   
  82160000   283.12174      0              269.63143      520.27927      0.66154478   
  82170000   294.76348      0              274.98163      535.93591     -0.66607898   
  82180000   293.37464      0              260.73096      520.4557       0.12557538   
  82190000   280.16631      0              269.13558      517.16697      0.82221687   
  82200000   297.50006      0              283.3157       546.69268     -0.17554577   
  82210000   322.73999      0              265.51385      551.23575      0.33835453   
  82220000   310.80269      0              280.17389      555.32769      0.22118159   
  82230000   293.326        0              264.8048       524.48648      0.17342265   
  82240000   295.93669      0              270.79829      532.79121     -1.060884     
  82250000   287.05161      0              241.86071      495.98768     -0.71936093   
  82260000   297.93093      0              269.07677      532.83519     -0.46083303   
  82270000   302.91187      0              258.27226      526.44032      0.047068167  
  82280000   295.21975      0              250.02789      511.38611     -0.54009106   
  82290000   312.83395      0              251.26372      528.2158      -0.76097893   
  82300000   306.93852      0              273.0754       544.80825     -1.1886819    
  82310000   291.75042      0              276.0341       534.32091      0.35182122   
  82320000   283.35075      0              258.04834      508.89892     -0.1925799    
  82330000   308.46495      0              261.64328      534.72748      0.77687727   
  82340000   289.11902      0              253.97071      509.92794      0.21574699   
  82350000   312.14775      0              265.31448      541.65906      1.0244646    
  82360000   320.76965      0              267.46212      551.43968     -1.224699     
  82370000   290.30051      0              270.70457      527.70778      0.6586856    
  82380000   293.21667      0              255.90373      515.48861      2.0484192    
  82390000   292.32415      0              261.2705       520.06523     -0.96863185   
  82400000   303.48848      0              284.35973      553.03825     -0.32230502   
  82410000   281.20092      0              261.78747      510.73482     -0.81088985   
  82420000   299.97642      0              269.05489      534.62419     -0.058949773  
  82430000   306.79683      0              283.05119      554.65861     -1.3678731    
  82440000   300.57169      0              258.40198      524.49827      1.2489274    
  82450000   290.96861      0              242.61015      500.20482     -0.66432611   
  82460000   299.37665      0              263.90264      528.94096      0.44927356   
  82470000   308.85493      0              273.99688      547.42633     -1.4865236    
  82480000   278.93733      0              274.19343      521.13682      1.1769408    
  82490000   290.49552      0              271.43301      528.60886     -0.83239676   
  82500000   297.01861      0              254.56736      517.51811      0.96692722   
  82510000   291.45892      0              283.14313      541.17188     -0.21274689   
  82520000   290.55848      0              272.47908      529.71067      0.68481756   
  82530000   286.69009      0              266.37864      520.18554     -0.70577209   
  82540000   287.69405      0              274.01144      528.70715     -0.31492756   
  82550000   294.09586      0              265.79078      526.15402      1.1089457    
  82560000   317.98207      0              271.16986      552.67957      0.70767824   
  82570000   289.86662      0              256.44068      513.05978      2.7215937    
  82580000   307.73182      0              248.06124      520.49639     -0.092761126  
  82590000   306.01742      0              268.13303      539.05043     -1.9429999    
  82600000   295.10258      0              250.51259      511.76707      0.29243683   
  82610000   309.28695      0              252.52922      526.34113      1.211097     
  82620000   336.90683      0              254.1724       552.43622     -0.44661202   
  82630000   300.24743      0              264.00496      529.81419     -0.88271442   
  82640000   306.5976       0              246.84274      518.27377     -0.12962793   
  82650000   300.93753      0              239.50428      505.92445     -0.37809527   
  82660000   304.27896      0              273.33129      542.70963     -1.2455162    
  82670000   308.17298      0              273.97701      546.80273     -0.2281758    
  82680000   297.3628       0              260.70025      523.95571     -0.38751517   
  82690000   284.91096      0              249.33475      501.56659     -3.0029332    
  82700000   301.44531      0              281.41677      548.28648     -0.56544323   
  82710000   290.85136      0              255.44385      512.93473     -0.3479629    
  82720000   297.0489       0              257.03491      520.01248      0.52849319   
  82730000   265.44906      0              247.01769      482.0199      -0.1391598    
  82740000   296.40505      0              247.51707      509.92464     -0.7286782    
  82750000   296.88894      0              251.51322      514.34916     -1.0125461    
  82760000   307.80406      0              268.02557      540.52468      0.83959136   
  82770000   315.85802      0              276.00672      555.63601      0.29070092   
  82780000   293.49576      0              247.04745      506.87942      0.3172843    
  82790000   291.49037      0              272.46355      530.52014      0.71533809   
  82800000   306.91517      0              281.16239      552.87457      0.063345333  
  82810000   311.63562      0              272.13227      548.02347     -0.3752121    
  82820000   313.60868      0              253.36016      530.99811      1.0183686    
  82830000   298.31766      0              276.32892      540.42972      0.944576     
  82840000   284.07612      0              254.30017      505.79292      0.73783152   
  82850000   308.09239      0              267.41904      540.17342     -0.050842729  
  82860000   289.49519      0              272.43337      528.72363      1.0869743    
  82870000   290.85348      0              283.84635      541.3391       1.6683053    
  82880000   311.13172      0              255.87414      531.31924     -1.4513239    
  82890000   275.62799      0              253.9698       497.98342     -0.17159566   
  82900000   298.78967      0              246.23493      510.7536       0.23392673   
  82910000   287.85341      0              252.58498      507.42177      1.0309518    
  82920000   309.27867      0              259.39012      533.19471     -0.37840798   
  82930000   301.55321      0              273.46198      540.42721      2.885721     
  82940000   271.74493      0              285.673        526.24894      0.69682243   
  82950000   293.93406      0              255.33251      515.5525      -1.0640594    
  82960000   285.05135      0              260.94592      513.30205     -0.53633931   
  82970000   304.57186      0              255.29397      524.93162     -0.38579298   
  82980000   297.30782      0              249.0314       512.23818     -0.82826652   
  82990000   268.62343      0              307.29395      545.10643     -0.59119577   
  83000000   294.33915      0              259.74807      520.32669      1.4507454    
  83010000   293.05693      0              246.1361       505.57958      0.34044847   
  83020000   283.76307      0              243.68897      494.90458     -0.57800723   
  83030000   319.89459      0              270.15344      553.35631      1.1090978    
  83040000   319.67195      0              254.13876      537.14453     -1.0539408    
  83050000   295.85603      0              264.02716      525.94868      0.40688738   
  83060000   273.69683      0              268.57623      510.88019     -0.23512079   
  83070000   281.64807      0              250.3494       499.69261      0.27712508   
  83080000   317.82542      0              256.47307      537.8441       0.33913314   
  83090000   300.90719      0              269.80329      536.19659      0.14131662   
  83100000   309.30786      0              255.18902      529.01945      0.36282599   
  83110000   321.42264      0              253.49687      538.05252     -0.19868926   
  83120000   285.66566      0              260.08365      512.98363     -1.6367101    
  83130000   305.90626      0              264.1784       534.99739     -0.41973294   
  83140000   298.4552       0              236.44132      500.66389     -0.71235663   
  83150000   330.87126      0              277.54416      570.46467     -0.56259484   
  83160000   294.54573      0              263.24513      524.00664      0.07197437   
  83170000   309.82862      0              267.67311      541.96457     -1.3273736    
  83180000   332.94353      0              265.36433      560.11944      1.4050381    
  83190000   324.89314      0              266.77403      554.40211      0.55757641   
  83200000   321.92632      0              280.68884      565.6904      -0.33350306   
  83210000   287.3416       0              252.04883      506.43252      1.1071875    
  83220000   305.38114      0              239.0802       509.4343       1.0585631    
  83230000   294.01696      0              245.56791      505.8613       0.74451529   
  83240000   302.5898       0              271.09494      538.97787      1.2666722    
  83250000   293.19429      0              247.80014      507.36522     -0.13657159   
  83260000   301.29545      0              271.79899      538.53602     -0.22942308   
  83270000   294.35583      0              239.72694      500.32033      1.3861835    
  83280000   295.81804      0              256.90955      518.79743     -0.016739934  
  83290000   334.92617      0              250.99186      547.50219      1.267983     
  83300000   312.16543      0              265.89642      542.25666     -0.23566417   
  83310000   318.41909      0              257.6316       539.52821      1.2793828    
  83320000   281.38634      0              281.035        530.1465       1.2206445    
  83330000   314.73284      0              251.66474      530.2979      -0.040937033  
  83340000   295.42532      0              278.20702      539.74723      0.7612595    
  83350000   312.52201      0              269.63477      546.31069     -3.2526881    
  83360000   298.40292      0              267.00601      531.18229     -0.64573387   
  83370000   299.16313      0              257.14707      521.99636      1.8595481    
  83380000   297.61474      0              252.95761      516.43612     -0.070315377  
  83390000   263.34942      0              270.91127      504.05467     -0.159533     
  83400000   319.34042      0              263.24732      545.95958      0.31784873   
  83410000   286.69125      0              268.37012      522.17806     -0.85931352   
  83420000   309.91204      0              274.60486      548.97017     -1.8528713    
  83430000   285.94505      0              260.70762      513.85494     -1.2935415    
  83440000   295.62332      0              281.83808      543.55357     -0.15086593   
  83450000   303.16382      0              252.1202       520.51131     -0.10386374   
  83460000   297.18793      0              276.80772      539.90837     -1.3114817    
  83470000   296.88436      0              256.86545      519.69734      0.093762836  
  83480000   316.34148      0              262.71578      542.77307      0.96476379   
  83490000   293.70838      0              268.56106      528.58127     -1.1927611    
  83500000   311.23488      0              254.8826       530.41902      0.86727899   
  83510000   272.78562      0              251.69494      493.19221      0.46714774   
  83520000   297.97807      0              279.5692       543.36937     -1.1780653    
  83530000   311.20155      0              266.35145      541.85836      0.45343823   
  83540000   330.67216      0              250.43475      543.179        1.920635     
  83550000   328.60076      0              257.51263      548.42308      0.81094287   
  83560000   283.7139       0              274.96519      526.13728      0.2893333    
  83570000   321.55451      0              246.63417      531.30657      0.069194468  
  83580000   307.75647      0              256.61416      529.07114     -0.89273545   
  83590000   312.5071       0              247.06325      523.72597      1.8547122    
  83600000   310.74245      0              258.76625      533.86672      0.28610413   
  83610000   301.54669      0              253.83743      520.79689     -1.156255     
  83620000   325.82928      0              273.95692      562.41376      0.65552463   
  83630000   303.13266      0              262.85543      531.21895     -0.22865125   
  83640000   288.11966      0              275.62076      530.69326      0.012730579  
  83650000   316.70605      0              241.98252      522.36257      0.72913674   
  83660000   297.2798       0              265.89838      529.08036      0.64067002   
  83670000   312.63258      0              267.11675      543.89055     -1.1353897    
  83680000   302.0254       0              282.75585      550.13911     -2.7425183    
  83690000   302.65163      0              262.43521      530.37288     -1.1876555    
  83700000   300.13041      0              251.59572      517.30135      1.9428968    
  83710000   315.15174      0              282.42046      561.42449     -0.13344708   
  83720000   297.24383      0              260.31077      523.4609      -0.46802741   
  83730000   309.55409      0              241.92025      515.96866      0.057763857  
  83740000   301.8406       0              274.88777      542.10743      0.0065409548 
  83750000   317.01916      0              257.39309      538.05034     -1.0135141    
  83760000   305.83961      0              256.86202      527.622        1.0936862    
  83770000   291.93324      0              267.31306      525.76172     -0.6305103    
  83780000   312.1201       0              242.33831      518.65842     -1.0961097    
  83790000   305.10341      0              234.48582      504.59405     -0.24998932   
  83800000   300.83682      0              257.87664      524.20766     -1.1974886    
  83810000   303.35861      0              249.2269       517.79045     -1.1610621    
  83820000   289.63852      0              282.79882      539.21597      0.49627073   
  83830000   303.10638      0              279.97191      548.31217      0.47964121   
  83840000   266.29448      0              278.65062      514.40128      2.0104685    
  83850000   292.60076      0              256.73441      515.77404     -0.63941222   
  83860000   335.02288      0              266.90817      563.50412      2.6774314    
  83870000   275.88416      0              281.191        525.43141     -0.86190286   
  83880000   294.93662      0              261.56516      522.67272      0.35333394   
  83890000   289.27608      0              266.74396      522.84024      0.41710945   
  83900000   293.20705      0              267.68738      527.26375     -0.63451438   
  83910000   284.76433      0              279.13914      531.24117     -1.265404     
  83920000   283.94609      0              247.74995      499.12759     -0.37002866   
  83930000   308.07081      0              258.66715      531.40242     -1.2455715    
  83940000   300.49948      0              256.5245       522.55686     -1.4914124    
  83950000   291.73186      0              271.15107      529.42145      0.26182626   
  83960000   302.19998      0              253.54993      521.08775      0.75475241   
  83970000   306.98929      0              246.94406      518.72186      0.44023631   
  83980000   322.06851      0              278.51623      563.64367     -0.73842327   
  83990000   315.42668      0              263.50345      542.75088     -0.37081734   
  84000000   321.29018      0              254.43569      538.87408      0.47461112   
  84010000   304.01287      0              260.5633       529.70606      1.9583154    
  84020000   334.67391      0              264.9365       561.22352     -0.037793758  
  84030000   290.56431      0              263.98579      521.22255      1.0123932    
  84040000   306.06386      0              272.2402       543.19871      0.3313346    
  84050000   293.58589      0              284.29397      544.20573     -0.31840164   
  84060000   296.29004      0              262.99045      525.29619      0.38909885   
  84070000   291.75856      0              296.03451      554.32853      0.37914518   
  84080000   292.27135      0              265.10666      523.85465     -0.71333899   
  84090000   302.06798      0              255.84429      523.26525     -1.0004978    
  84100000   298.93526      0              288.25316      552.90072     -0.18501408   
  84110000   308.60734      0              268.17435      541.3846      -0.045314755  
  84120000   311.06125      0              269.96584      545.34854      0.37624935   
  84130000   294.06455      0              273.03613      533.37165      0.32669107   
  84140000   273.00823      0              265.28184      506.97618      0.90577058   
  84150000   323.22627      0              288.05809      574.21049     -0.3402316    
  84160000   300.79745      0              248.30723      514.60339     -0.84298626   
  84170000   308.01572      0              251.86317      524.54966      0.72205605   
  84180000   287.451        0              248.77769      503.25822      1.697348     
  84190000   287.06716      0              260.34596      514.48668      0.088538126  
  84200000   308.49405      0              243.27186      516.38182     -0.43983844   
  84210000   297.20994      0              267.94931      531.06945     -0.80340181   
  84220000   316.05556      0              290.15525      569.95942     -0.2987782    
  84230000   315.60103      0              278.02932      557.43109     -0.20321751   
  84240000   289.72063      0              260.6653       517.15515     -0.09141709   
  84250000   290.36993      0              275.93476      532.99943      0.3119379    
  84260000   326.47018      0              260.24781      549.27205      0.44650151   
  84270000   301.90046      0              263.06835      530.341       -1.8143629    
  84280000   309.22898      0              254.27266      528.03326      1.9345669    
  84290000   277.20685      0              270.7623       516.17368      1.9948376    
  84300000   300.66372      0              248.37167      514.54944     -0.4265247    
  84310000   295.33579      0              271.65505      533.116        0.65641618   
  84320000   302.38383      0              264.74617      532.44675     -0.25885764   
  84330000   285.06059      0              285.47862      537.84293     -1.1346227    
  84340000   287.01416      0              281.9697       536.0635      -0.34353419   
  84350000   266.26374      0              270.37859      506.10203      0.49816468   
  84360000   299.17037      0              269.37132      534.22703      0.0022844507 
  84370000   281.45844      0              261.64047      510.81579      1.2431889    
  84380000   282.28919      0              253.861        503.77178     -1.0535384    
  84390000   307.12324      0              260.25137      532.14776     -2.2412649    
  84400000   313.84017      0              270.90716      548.75005     -0.79856092   
  84410000   292.408        0              273.68787      532.55685     -0.43207084   
  84420000   310.11334      0              249.588        524.13153      0.40786966   
  84430000   304.79703      0              264.79481      534.6318       0.97065996   
  84440000   288.48534      0              287.43644      542.83268      0.143002     
  84450000   315.50538      0              283.39989      562.71699     -0.50934343   
  84460000   299.33821      0              281.42447      546.42876      1.3177328    
  84470000   296.79688      0              255.8792       518.63365      0.78429421   
  84480000   286.43522      0              272.03196      525.61323      0.98890326   
  84490000   314.717        0              266.10431      544.72345     -0.79676527   
  84500000   285.19149      0              269.45573      521.93592     -0.1400464    
  84510000   270.81753      0              258.93429      498.68921      0.93081451   
  84520000   307.20076      0              283.32776      555.29277     -0.48968719   
  84530000   286.157        0              250.63973      503.97469     -0.28402516   
  84540000   319.0235       0              267.18976      549.62145     -0.23088779   
  84550000   331.04117      0              253.05779      546.12874     -0.89167255   
  84560000   307.59257      0              243.00374      515.31562      1.2038312    
  84570000   292.03156      0              246.51402      505.04973     -1.5677675    
  84580000   305.73836      0              255.02114      525.69149     -1.1555816    
  84590000   302.12285      0              264.90107      532.3706      -0.24957951   
  84600000   331.51982      0              267.55062      561.04531      1.7782594    
  84610000   318.0011       0              264.65932      546.18588      0.78719256   
  84620000   330.2598       0              269.69692      562.07612     -0.77596789   
  84630000   315.93744      0              278.75585      558.45545     -1.3405111    
  84640000   322.92385      0              265.03258      550.91726      0.854633     
  84650000   320.06607      0              250.69368      534.04837     -1.4716331    
  84660000   299.91608      0              261.24767      526.76355      0.31072033   
  84670000   321.06299      0              246.62857      530.86583      0.040811952  
  84680000   298.06646      0              243.736        507.6144       0.87737306   
  84690000   312.26353      0              243.62386      520.07095     -1.8957864    
  84700000   318.77321      0              261.77558      543.98569     -0.2377024    
  84710000   291.40657      0              249.81084      507.79325     -0.1677045    
  84720000   314.22964      0              246.71938      524.90706     -0.075562739  
  84730000   290.85951      0              244.37897      501.87706     -0.34599386   
  84740000   340.02217      0              263.54344      564.56527      0.13016019   
  84750000   290.89391      0              273.42172      530.95027      1.175649     
  84760000   293.07852      0              272.91589      532.37848     -0.8179495    
  84770000   341.29326      0              250.8778       553.02492      0.011188154  
  84780000   277.05588      0              263.41927      508.69701     -1.5864216    
  84790000   302.58486      0              272.23778      540.11634     -0.30786791   
  84800000   294.65169      0              260.57119      521.42651      1.04313      
  84810000   298.67036      0              271.70783      536.12087      1.2432965    
  84820000   285.81927      0              271.79442      524.83039      0.60617598   
  84830000   282.36077      0              266.9725       516.94666     -1.6366001    
  84840000   304.44363      0              260.01141      529.53553     -0.20541691   
  84850000   281.59172      0              244.84769      494.141        0.086013381  
  84860000   293.79731      0              244.44909      504.54802      1.0175397    
  84870000   298.99012      0              262.06392      526.76006      0.098455388  
  84880000   273.42163      0              268.602        510.66233      0.74157142   
  84890000   308.1321       0              270.93732      543.72685     -0.53812317   
  84900000   295.83991      0              240.59326      502.50051     -1.7779705    
  84910000   319.83719      0              262.40172      545.55377      1.5677773    
  84920000   294.13724      0              262.37718      522.77705     -1.3621789    
  84930000   297.62512      0              266.45882      529.94652      1.6368514    
  84940000   303.37656      0              246.96293      515.54238      1.4298812    
  84950000   349.58237      0              251.81383      561.2993       0.52044014   
  84960000   300.15587      0              285.15284      550.881       -1.7246523    
  84970000   297.66238      0              272.79984      536.32052     -0.63859396   
  84980000   303.94138      0              275.13298      544.21246     -0.02606577   
  84990000   305.86507      0              263.64606      534.42858     -1.6184538    
  85000000   305.41893      0              288.19483      558.58238      0.30613664   
  85010000   300.46238      0              255.68937      521.6889      -0.22337216   
  85020000   326.36942      0              275.91041      564.84545      0.61127626   
  85030000   345.39632      0              274.38943      580.169        0.76353712   
  85040000   298.85383      0              239.47901      504.05448     -1.8681844    
  85050000   295.9622       0              256.3253       518.34081     -0.76355289   
  85060000   306.41371      0              263.67956      534.9478       0.073966658  
  85070000   300.76413      0              244.63216      510.89882     -1.3844383    
  85080000   299.66204      0              268.50273      533.79371      0.17882835   
  85090000   299.30188      0              252.57707      517.54919      0.23974583   
  85100000   309.17703      0              273.46603      547.18064     -1.1121036    
  85110000   301.60892      0              279.32268      546.33723     -0.72611701   
  85120000   284.74931      0              237.60348      489.69222      0.35570229   
  85130000   294.21018      0              249.95679      510.42124     -0.19772056   
  85140000   294.20667      0              256.568        517.02933      1.4233845    
  85150000   295.64938      0              266.67683      528.4154      -0.30269743   
  85160000   308.35916      0              250.52235      523.51289     -0.08470626   
  85170000   273.44555      0              258.70097      500.78248      0.58222229   
  85180000   294.68692      0              256.76722      517.65372      1.5260325    
  85190000   311.36072      0              263.56024      539.20807      0.45387193   
  85200000   314.81614      0              261.16227      539.86919      1.7889954    
  85210000   304.09776      0              253.45526      522.67319     -1.2580828    
  85220000   301.76512      0              276.58353      543.73636      0.39832149   
  85230000   279.06567      0              248.84966      495.90666      1.89943      
  85240000   304.72759      0              257.96346      527.73897     -0.68013513   
  85250000   300.03761      0              282.06097      547.68444     -0.23284699   
  85260000   272.75379      0              269.73903      511.20812      1.266212     
  85270000   292.08832      0              247.17355      505.75951      0.15604752   
  85280000   318.42334      0              264.60608      546.50646      0.34594627   
  85290000   339.54576      0              285.78465      586.38471     -0.10153432   
  85300000   273.12864      0              284.16431      525.96526     -1.7412366    
  85310000   291.94222      0              263.01453      521.47115     -0.16374499   
  85320000   280.595        0              270.32631      518.73723     -0.54565415   
  85330000   293.3468       0              259.03642      518.73651     -0.33311357   
  85340000   332.26705      0              276.41236      570.56857     -0.9563825    
  85350000   290.41787      0              243.89427      501.00138     -1.3598139    
  85360000   311.1966       0              254.27717      529.7797       1.9749922    
  85370000   295.50956      0              232.00937      493.62416     -0.66095448   
  85380000   322.12813      0              253.39103      538.57125      1.4283584    
  85390000   326.50828      0              267.38052      556.43849     -0.056669916  
  85400000   307.69596      0              270.867        543.27042      0.65582481   
  85410000   313.37303      0              246.61497      524.04429     -1.0756346    
  85420000   279.68484      0              256.95414      504.55929      1.0099822    
  85430000   304.6181       0              256.4851       526.16369     -1.3231357    
  85440000   340.41721      0              262.74205      564.1136       0.77312505   
  85450000   317.0067       0              266.70602      547.35224     -0.69072926   
  85460000   280.46624      0              259.67241      507.96934     -2.2750603    
  85470000   315.26476      0              258.66559      537.76966      1.6285281    
  85480000   307.11299      0              243.45271      515.34001      0.30077146   
  85490000   303.11355      0              265.08513      533.43173      1.6869281    
  85500000   287.7142       0              257.77459      512.48814      1.1108032    
  85510000   292.13653      0              260.08967      518.71831      0.56557644   
  85520000   306.45144      0              277.92809      549.22974     -1.0600824    
  85530000   323.4692       0              264.54068      550.90815     -1.8144639    
  85540000   305.68488      0              262.03859      532.66159      1.056962     
  85550000   306.23181      0              253.99568      525.10288     -1.7191948    
  85560000   304.91026      0              256.8015       526.73873      0.77937225   
  85570000   300.98276      0              251.75967      518.21988     -0.39673625   
  85580000   316.80736      0              251.82121      532.29095      0.049540301  
  85590000   337.49754      0              260.00327      558.79004      0.32734604   
  85600000   313.26142      0              253.38807      530.71859      0.51812037   
  85610000   294.28224      0              276.5476       537.07584     -2.2278208    
  85620000   296.65323      0              241.06515      503.69243      0.093657613  
  85630000   305.38229      0              241.36739      511.7225      -0.1382724    
  85640000   321.05322      0              279.21731      563.44592     -0.11029817   
  85650000   287.30226      0              280.71359      535.06245      1.2251002    
  85660000   307.9205       0              257.95409      530.55629      1.895873     
  85670000   282.49044      0              262.92256      513.01152     -1.3843672    
  85680000   305.2515       0              273.49905      543.73838     -0.78396521   
  85690000   313.10913      0              262.22272      539.41842     -1.2541747    
  85700000   285.43045      0              248.21705      500.9088      -0.032848086  
  85710000   295.94917      0              263.53996      525.54393     -0.50146213   
  85720000   286.33483      0              254.67272      508.16511     -0.22004143   
  85730000   327.24555      0              253.41751      543.12818      0.42157549   
  85740000   302.88813      0              273.3454       541.49245     -0.0043567645 
  85750000   300.52109      0              259.24481      525.29631      1.2069822    
  85760000   308.33141      0              256.54069      529.50667     -0.084065701  
  85770000   317.1719       0              251.78433      532.5768       0.22464449   
  85780000   290.65602      0              269.49874      526.81669     -0.13342526   
  85790000   295.77892      0              259.20515      521.0584      -1.1328944    
  85800000   277.5736       0              268.78887      514.52494      0.25922261   
  85810000   296.70488      0              256.58014      519.25315      1.2833258    
  85820000   335.82955      0              265.34587      562.65597      0.84569383   
  85830000   301.46232      0              278.13827      545.02304     -0.20781339   
  85840000   325.80675      0              246.04136      534.47826      0.92752241   
  85850000   313.99477      0              256.21152      534.19127      1.5635379    
  85860000   298.07593      0              273.76091      537.6477       0.245791     
  85870000   328.3221       0              258.14741      548.81116      1.0261061    
  85880000   301.23468      0              272.61319      539.29643     -1.5402154    
  85890000   335.99513      0              260.7041       558.16079     -0.63104485   
  85900000   313.71351      0              261.14164      538.8724      -0.79103922   
  85910000   288.01964      0              259.10271      514.08667      1.04632      
  85920000   285.49948      0              282.51906      535.27191     -0.1802644    
  85930000   329.61587      0              249.51403      541.32315     -0.1106132    
  85940000   322.07249      0              269.67054      554.8015       0.10478846   
  85950000   325.92788      0              269.92934      558.47349     -2.0436708    
  85960000   289.42815      0              266.67665      522.90756      1.5164868    
  85970000   318.59369      0              262.1347       544.18588      0.25440513   
  85980000   295.08437      0              254.09793      515.3363       0.55244332   
  85990000   304.94224      0              255.94765      525.91319      0.52767371   
  86000000   307.08985      0              269.90704      541.77386     -0.99695953   
  86010000   304.01565      0              275.23269      544.37792     -1.3232748    
  86020000   292.48867      0              236.50099      495.44138     -2.1340302    
  86030000   288.52256      0              261.81861      517.2478      -0.17701171   
  86040000   288.28278      0              279.16455      534.38146     -0.88452976   
  86050000   276.80674      0              280.74565      525.80282     -0.026427221  
  86060000   317.90934      0              261.54334      542.98866      0.5200223    
  86070000   290.93709      0              267.4712       525.03798     -0.32860021   
  86080000   283.69015      0              250.82745      501.97851     -1.3920616    
  86090000   274.99739      0              265.25067      508.70602      0.675136     
  86100000   291.0863       0              275.00936      532.70823     -2.2280579    
  86110000   292.52187      0              267.8001       526.76988     -0.29684011   
  86120000   308.31192      0              263.44433      536.39306      1.3055165    
  86130000   272.79186      0              265.18912      506.69192      1.0678775    
  86140000   296.51292      0              260.98961      523.49267      1.5668793    
  86150000   310.2147       0              262.52729      537.16055      1.2958326    
  86160000   301.97487      0              286.93377      554.2723       0.42488922   
  86170000   319.76974      0              270.05825      553.15059      0.032911698  
  86180000   313.3217       0              250.40227      527.78615      1.4608501    
  86190000   309.98865      0              276.6414       551.07453      2.4739336    
  86200000   323.03124      0              263.31532      549.29507     -1.0790121    
  86210000   296.70485      0              276.09184      538.76481      0.7392131    
  86220000   299.65191      0              256.08729      521.36931      0.48837874   
  86230000   292.54158      0              261.7808       520.76803      1.0379057    
  86240000   294.53671      0              266.88671      527.64023     -0.24843409   
  86250000   309.80044      0              260.05211      534.31861     -0.82490409   
  86260000   305.03079      0              239.86307      509.90701     -0.37505925   
  86270000   289.63907      0              273.95125      530.36889      0.68360701   
  86280000   299.05926      0              268.96811      533.72544     -0.47240457   
  86290000   303.6987       0              262.51345      531.37808      1.2482857    
  86300000   292.8737       0              264.80233      524.08359      0.8397092    
  86310000   307.81319      0              251.42982      523.93701      1.1584023    
  86320000   295.64117      0              267.15553      528.88683      0.36575937   
  86330000   321.43561      0              266.3721       550.93923      0.030121055  
  86340000   284.6223       0              264.82215      516.79844      0.5722008    
  86350000   275.60157      0              287.1791       531.16934     -1.009828     
  86360000   278.6213       0              292.78628      539.44989      0.76038948   
  86370000   283.29787      0              288.78622      539.58998      0.4715361    
  86380000   301.95348      0              260.95194      528.27153      0.77222779   
  86390000   283.74717      0              259.88451      511.08605     -0.64167408   
  86400000   278.24007      0              265.73581      512.0619      -0.6716472    
  86410000   309.01377      0              244.65663      518.22671     -0.64373805   
  86420000   298.05574      0              265.12118      528.9901       0.66514989   
  86430000   326.09825      0              265.72729      554.42227     -0.78774626   
  86440000   268.86279      0              272.82613      510.85051     -0.12786183   
  86450000   307.41369      0              266.54625      538.69978     -0.8847845    
  86460000   310.55287      0              259.7212       534.65384     -1.0652389    
  86470000   298.70635      0              274.21882      538.66372     -1.5738306    
  86480000   305.32413      0              251.70081      522.00444     -0.69950466   
  86490000   283.17063      0              245.27064      495.96176      0.15409837   
  86500000   283.28647      0              262.75243      513.54611      1.1113618    
  86510000   319.02778      0              245.75291      528.18839      0.97154594   
  86520000   292.75358      0              255.3307       514.50561     -0.054059219  
  86530000   294.89129      0              268.6152       529.68263      0.45961425   
  86540000   292.2477       0              248.46251      507.18957      0.014390017  
  86550000   318.37361      0              249.59438      531.45072      0.46320801   
  86560000   325.78267      0              263.58117      551.99677      0.67702943   
  86570000   286.77755      0              288.28414      542.16848      0.0085010236 
  86580000   304.18601      0              270.13519      539.43124     -0.56499988   
  86590000   332.86738      0              253.89077      548.57846     -0.91296213   
  86600000   283.74653      0              237.98743      489.1884      -0.20491861   
  86610000   281.77539      0              267.99583      517.45175      0.55694938   
  86620000   296.25555      0              259.2582       521.53342     -0.99219404   
  86630000   288.44468      0              257.9558       513.31604     -1.1650246    
  86640000   301.22122      0              278.43299      545.10431      0.67974629   
  86650000   294.18847      0              273.46535      533.91058     -0.095273085  
  86660000   312.31953      0              267.88962      544.38628      0.30146082   
  86670000   277.59328      0              262.40223      508.15572      0.017219635  
  86680000   280.5851       0              264.19634      512.59849     -1.1918664    
  86690000   298.12277      0              261.46836      525.39662      0.99055384   
  86700000   290.36227      0              242.95873      500.01661     -0.44498706   
  86710000   308.25795      0              292.83107      565.73201     -0.28239631   
  86720000   288.3878       0              266.50158      521.81147     -1.4129714    
  86730000   306.48205      0              254.53885      525.86759     -0.68794731   
  86740000   289.17642      0              267.16073      523.16878      0.062306287  
  86750000   326.66137      0              281.55716      570.75066     -0.55980714   
  86760000   285.75349      0              235.55378      488.53151      1.2930268    
  86770000   302.44642      0              288.52419      556.28018     -1.0593191    
  86780000   318.92254      0              271.74339      554.0857       0.85657485   
  86790000   295.0746       0              266.80917      528.03889      1.3291834    
  86800000   292.02821      0              279.83077      538.36351      0.061876792  
  86810000   307.38221      0              256.69329      528.81894     -0.35227988   
  86820000   290.06883      0              256.88066      513.67877     -0.12460868   
  86830000   304.94055      0              261.75359      531.71763      1.0931955    
  86840000   306.68272      0              267.67245      539.17884      1.2112184    
  86850000   303.58355      0              273.93449      542.69719      2.0890115    
  86860000   318.28274      0              277.06716      558.84306      1.2704196    
  86870000   309.78969      0              252.76838      527.02537      1.826196     
  86880000   304.20007      0              275.19887      544.50737     -0.31077448   
  86890000   304.61803      0              250.99755      520.67607     -0.76222685   
  86900000   302.23133      0              281.18937      548.75494     -0.17190553   
  86910000   301.57053      0              271.77803      538.75859      1.6607374    
  86920000   270.71833      0              261.27138      500.93848     -1.5029514    
  86930000   328.1427       0              270.11093      560.61586     -0.1078069    
  86940000   306.89048      0              263.82018      535.5105      -0.53012277   
  86950000   318.58265      0              266.96851      549.00991     -1.4051364    
  86960000   290.69009      0              249.70687      507.05497     -1.0624684    
  86970000   278.42788      0              243.28197      489.77433     -0.68212956   
  86980000   273.90706      0              240.95442      483.4445       0.80305882   
  86990000   320.27379      0              256.09347      539.63204      0.050334718  
  87000000   297.82386      0              250.95117      514.61481      0.10622366   
  87010000   306.12844      0              272.05042      543.0661      -0.069588646  
  87020000   279.72401      0              261.88134      509.52117      1.0494346    
  87030000   285.36258      0              289.98788      542.61954      0.73815054   
  87040000   301.4195       0              250.05623      516.90309      0.062633443  
  87050000   306.90949      0              240.33857      512.04573      2.6586464    
  87060000   285.26675      0              279.53649      532.08331     -0.059232966  
  87070000   309.9513       0              252.2571       526.65716      0.37715039   
  87080000   284.64862      0              283.55812      535.5577       0.49569445   
  87090000   319.5877       0              283.84276      566.77394     -1.3523616    
  87100000   292.10683      0              264.75104      523.35338     -1.3806693    
  87110000   290.29911      0              248.87307      505.87505      0.057041121  
  87120000   308.89176      0              267.21313      540.67519      0.61506034   
  87130000   293.15551      0              254.17885      513.7096       0.81642958   
  87140000   296.01817      0              242.96734      505.0324      -0.93878259   
  87150000   285.67769      0              247.0346       499.94522     -1.2054591    
  87160000   285.12756      0              261.03194      513.45554      0.45655615   
  87170000   299.97503      0              258.57294      524.14101      0.64447777   
  87180000   306.91085      0              280.01633      551.72469      1.6146057    
  87190000   289.66612      0              263.04816      519.48975      0.37346065   
  87200000   320.20536      0              264.7909       548.2689      -0.73377564   
  87210000   319.8914       0              278.68322      561.88326     -1.4189163    
  87220000   318.4845       0              262.08121      544.03572      1.9357194    
  87230000   275.01154      0              261.35901      504.82689      0.90580003   
  87240000   302.06955      0              255.32158      522.74393     -0.13314015   
  87250000   283.39198      0              252.14953      503.03662     -2.2201374    
  87260000   300.64553      0              263.43169      529.59335      0.54221618   
  87270000   341.03772      0              274.16691      576.0878      -0.39711314   
  87280000   308.91584      0              268.93985      542.42323     -0.46887215   
  87290000   293.40524      0              272.09248      531.84431     -0.49987637   
  87300000   308.42223      0              276.59455      549.64093      1.8274664    
  87310000   300.46895      0              270.89039      536.89573     -0.98456672   
  87320000   304.42085      0              259.81963      529.32358     -0.078456223  
  87330000   275.46189      0              247.04671      490.91329     -1.0317737    
  87340000   281.09315      0              263.94089      512.79282      0.80855209   
  87350000   302.07844      0              278.90509      546.33531      0.40864908   
  87360000   314.06755      0              241.5561       519.60028      1.3747684    
  87370000   297.50984      0              252.20288      515.58851     -0.77184023   
  87380000   306.3091       0              255.38954      526.56517     -1.2687655    
  87390000   289.60738      0              253.73135      510.12093     -0.49391606   
  87400000   293.76366      0              272.46068      532.52982     -0.92749723   
  87410000   321.55007      0              249.8566       534.52507     -0.50096555   
  87420000   313.8196       0              270.8047       548.62938      0.58142672   
  87430000   289.46271      0              275.92907      532.19058     -0.60348118   
  87440000   289.53726      0              253.06444      509.39195     -0.29421764   
  87450000   311.2995       0              290.59567      566.18931      1.3101322    
  87460000   302.4981       0              260.34331      528.14505     -1.0113383    
  87470000   315.88885      0              252.2557       531.91229     -0.67203681   
  87480000   296.81809      0              266.93702      529.71025      0.15470055   
  87490000   297.06581      0              253.511        516.50353      1.1487612    
  87500000   307.05925      0              252.51928      524.35901      1.2122814    
  87510000   306.75476      0              248.05599      519.62616     -0.20453008   
  87520000   298.73672      0              288.20104      552.67283      0.063498085  
  87530000   308.19994      0              262.07981      534.9294      -0.16300269   
  87540000   317.53141      0              271.31057      552.42131     -0.7001946    
  87550000   292.37497      0              250.45629      509.29602     -2.045085     
  87560000   283.67292      0              252.40819      503.54399      1.1250243    
  87570000   282.3704       0              253.90961      503.89229     -0.15664589   
  87580000   294.24254      0              279.88819      540.38128      0.46649636   
  87590000   289.7502       0              275.78168      532.2977       0.37367371   
  87600000   322.18362      0              243.09121      528.32056      0.083509907  
  87610000   305.90257      0              262.36791      533.18363      0.034096267  
  87620000   316.54159      0              259.53453      539.76899      0.25660684   
  87630000   305.49988      0              263.20451      533.66373      0.0093735623 
  87640000   294.25261      0              267.28105      527.78306      0.046957888  
  87650000   292.81339      0              231.77383      491.0017      -0.96796185   
  87660000   304.37116      0              250.16716      519.62713      0.10143557   
  87670000   295.39235      0              263.73867      525.24968      1.2727848    
  87680000   307.82619      0              241.49099      514.0097       0.67994076   
  87690000   309.51981      0              263.8519       537.86996     -0.090185378  
  87700000   297.38423      0              250.65788      513.93231      1.4432921    
  87710000   286.96816      0              251.12101      505.17409      0.024695743  
  87720000   277.08842      0              278.53679      523.84334     -0.61119202   
  87730000   312.3832       0              274.03289      550.58591     -0.25878652   
  87740000   315.32147      0              272.34784      551.50212     -0.51847697   
  87750000   279.73901      0              252.13228      499.78539     -0.87130585   
  87760000   284.66311      0              263.58478      515.5972      -0.9347547    
  87770000   303.37248      0              248.35856      516.93439     -1.0431217    
  87780000   302.59185      0              269.01219      536.89693     -0.4070482    
  87790000   320.39811      0              263.07707      546.7257       0.38381922   
  87800000   300.69859      0              253.8864       520.09504     -0.36963582   
  87810000   293.32186      0              252.04284      511.72086     -0.013408322  
  87820000   293.00136      0              259.07704      518.47132      1.7257549    
  87830000   288.47561      0              259.07128      514.45891      0.85102974   
  87840000   296.48837      0              269.27601      531.75733      0.65217721   
  87850000   286.48707      0              278.75075      532.37792     -0.12652252   
  87860000   325.99476      0              257.87122      546.47457      2.5102638    
  87870000   334.39916      0              278.58664      574.63041     -0.22369328   
  87880000   307.42443      0              249.79315      521.95618     -0.075668981  
  87890000   296.86781      0              257.80106      520.6183       1.3131714    
  87900000   320.60144      0              264.20834      548.03698      0.32780444   
  87910000   291.81386      0              261.23399      519.57697     -2.5839692    
  87920000   278.4507       0              272.53865      519.05121     -0.081748473  
  87930000   292.95935      0              258.7235       518.08058     -0.93949732   
  87940000   272.11491      0              253.93904      494.84252     -0.0058824978 
  87950000   269.26405      0              264.45383      502.83344     -0.20574271   
  87960000   300.55731      0              258.1988       524.28237      0.30348489   
  87970000   295.51947      0              271.097        532.72056     -0.2090088    
  87980000   307.26662      0              275.75239      547.77571      2.769808     
  87990000   318.38472      0              291.75006      573.61624      0.38318287   
  88000000   281.31922      0              246.70937      495.76144     -1.6063908    
  88010000   308.5635       0              245.8607       519.03215     -0.13702202   
  88020000   311.79536      0              270.00486      546.03747      0.12837937   
  88030000   300.86933      0              267.88484      534.24463     -0.21998207   
  88040000   297.32391      0              262.09698      525.318       -1.6665044    
  88050000   305.71035      0              267.05397      537.69952     -1.5795483    
  88060000   292.83076      0              281.00746      540.2507       0.0099048933 
  88070000   309.24153      0              261.9646       535.73631      1.7150353    
  88080000   303.03895      0              272.88615      541.16671      0.79034078   
  88090000   295.0603       0              287.98553      549.20258     -1.4899794    
  88100000   318.86374      0              284.74661      567.03686      1.6245897    
  88110000   285.851        0              280.24783      533.31189     -0.68442841   
  88120000   285.02808      0              247.4017       499.73722      0.23953137   
  88130000   304.75908      0              273.61087      543.41426      0.048259903  
  88140000   284.42492      0              260.96707      512.76862      1.9135814    
  88150000   288.41577      0              262.02191      517.35656      0.12761184   
  88160000   306.04667      0              266.9847       537.928        1.1289606    
  88170000   280.30906      0              252.34578      500.50355     -0.13288173   
  88180000   284.32996      0              263.10363      514.8211      -0.64437797   
  88190000   296.98933      0              255.87391      518.79874      1.0038623    
  88200000   315.39072      0              257.00728      536.22287      0.82356236   
  88210000   324.73318      0              242.34265      529.82913     -1.0190376    
  88220000   301.18534      0              285.03706      551.67661     -0.2044379    
  88230000   296.97239      0              272.35164      535.26147     -0.37660536   
  88240000   289.18604      0              261.97173      517.98831      1.2970502    
  88250000   319.49374      0              262.18545      545.03344     -0.33085056   
  88260000   290.37875      0              260.58913      517.6616       0.093705419  
  88270000   284.74907      0              254.19989      506.28841     -0.46273432   
  88280000   330.96663      0              280.24631      573.25126      1.6088777    
  88290000   298.93563      0              278.98165      543.62954      1.3442736    
  88300000   314.33275      0              270.58367      548.86263      0.54881948   
  88310000   319.33505      0              250.48598      533.19348      0.44953667   
  88320000   299.35595      0              278.27981      543.2998      -1.928015     
  88330000   297.69235      0              241.61828      505.16549     -0.90242277   
  88340000   319.70896      0              262.29178      545.33031     -0.3601211    
  88350000   290.43996      0              276.96849      534.09516      0.25890044   
  88360000   317.23059      0              251.3683       532.21273      1.0187105    
  88370000   290.83795      0              274.80002      532.27902     -0.10421644   
  88380000   298.96763      0              274.83918      539.5154       0.059982113  
  88390000   288.6033       0              292.14449      547.64516      1.1651204    
  88400000   307.49117      0              260.88175      533.10386      1.4338193    
  88410000   304.09356      0              272.75502      541.96922     -2.0390351    
  88420000   283.50779      0              278.42218      529.4118      -1.3136869    
  88430000   298.92778      0              269.19031      533.83125      0.6862035    
  88440000   323.54288      0              272.64089      559.07359     -0.40457514   
  88450000   309.12248      0              263.45172      537.11803     -0.61267075   
  88460000   309.38638      0              251.4158       525.31574      1.5227765    
  88470000   309.76001      0              277.37767      551.60838      0.37391777   
  88480000   280.88731      0              220.60657      469.27627      0.94698234   
  88490000   288.2605       0              256.05382      511.25101      0.1406997    
  88500000   322.65965      0              258.19744      543.84821      0.39024078   
  88510000   299.19546      0              268.24764      533.12556      0.12474032   
  88520000   298.61374      0              249.49781      513.86073      0.69583678   
  88530000   272.8347       0              265.36892      506.90964     -0.63678458   
  88540000   291.82694      0              285.83047      544.18503      1.4383601    
  88550000   303.34256      0              257.08516      525.63451     -0.40485953   
  88560000   291.49289      0              281.30093      539.35976     -0.3609137    
  88570000   292.37228      0              262.8221       521.65945      0.79456971   
  88580000   289.85866      0              269.4085       526.02055      0.14987875   
  88590000   282.24621      0              280.107        529.97973      0.066897419  
  88600000   323.15804      0              231.38915      517.48115     -0.19671632   
  88610000   316.24928      0              253.54551      533.52119     -1.3179618    
  88620000   301.1844       0              266.45747      533.09619      1.162285     
  88630000   279.35096      0              262.28082      509.59039      0.2928978    
  88640000   292.09455      0              273.50466      532.09613     -0.025188892  
  88650000   310.29291      0              249.78302      524.48551     -0.82809053   
  88660000   319.94884      0              274.30836      557.55926      1.6157751    
  88670000   307.0451       0              269.84149      541.6687       0.7715503    
  88680000   299.44006      0              270.58667      535.68113      1.0456362    
  88690000   292.92911      0              267.30101      526.63132     -1.8636641    
  88700000   326.41518      0              255.49942      544.47496      1.1963354    
  88710000   304.24574      0              258.94635      528.29528      0.27255349   
  88720000   304.62217      0              252.65312      522.33531      0.77423046   
  88730000   290.92343      0              255.91691      513.47159     -0.93777221   
  88740000   296.38369      0              277.21287      539.60152      0.21486479   
  88750000   290.42647      0              256.54596      513.66068     -0.48547822   
  88760000   293.59131      0              268.44906      528.36562      1.1930931    
  88770000   300.60783      0              255.83302      521.96131     -0.0068855024 
  88780000   285.64237      0              280.92107      533.80042      0.21220913   
  88790000   278.01164      0              243.37749      489.50136     -1.1109996    
  88800000   289.52541      0              255.41073      511.72775      0.82600772   
  88810000   286.09968      0              260.60875      513.89296      1.5462589    
  88820000   308.78957      0              268.75357      542.12515      0.25284885   
  88830000   292.08041      0              270.78353      529.36248      1.1681499    
  88840000   314.09244      0              241.72353      519.78974     -1.3915516    
  88850000   285.60935      0              258.17668      511.02681      0.095857971  
  88860000   295.83957      0              271.83381      533.74075     -0.4278217    
  88870000   329.8491       0              261.15243      553.16803      0.2986354    
  88880000   294.49128      0              254.384        515.09731     -0.18819614   
  88890000   318.30408      0              262.91891      544.7137      -1.3738205    
  88900000   290.08259      0              266.77135      523.58164     -0.93019441   
  88910000   300.58649      0              278.48606      544.59546     -0.87905071   
  88920000   305.25898      0              244.2296       514.47555     -1.1190452    
  88930000   309.28015      0              261.35781      535.16371      1.5621503    
  88940000   302.72374      0              282.05622      550.05773     -0.74597271   
  88950000   308.29635      0              273.11941      546.05435      1.0819032    
  88960000   319.95836      0              265.6529       548.91222      1.1446658    
  88970000   302.9525       0              257.32602      525.53005     -0.78394414   
  88980000   306.09081      0              256.78735      527.76972      1.138968     
  88990000   298.7132       0              256.78255      521.23352      0.34015312   
  89000000   285.76732      0              264.15268      517.14265      0.16284969   
  89010000   310.43734      0              265.44033      540.27069      2.2310123    
  89020000   301.63961      0              269.46051      536.50224      0.10363957   
  89030000   292.73192      0              249.02517      508.18091      0.61912342   
  89040000   292.91813      0              277.51008      536.83067      1.952669     
  89050000   324.34986      0              264.77598      551.9231       1.7414333    
  89060000   315.6562       0              254.64934      534.09995      0.78473348   
  89070000   305.82523      0              257.49013      528.23738      0.29738761   
  89080000   294.55133      0              259.72133      520.4878       0.72023196   
  89090000   300.2814       0              268.4805       534.3198      -0.61788939   
  89100000   302.4833       0              246.78138      514.57003     -0.36940309   
  89110000   321.69767      0              243.5239       528.32304      0.77405886   
  89120000   321.71096      0              255.78039      540.5913      -1.1258996    
  89130000   299.50308      0              254.83484      519.98509     -0.98103524   
  89140000   307.9342       0              269.6576       542.27193      0.75591065   
  89150000   327.63159      0              274.94359      564.99603      0.31021942   
  89160000   287.65931      0              262.49972      517.16467     -1.4519611    
  89170000   300.51903      0              282.93886      548.98854     -0.30849298   
  89180000   289.7095       0              274.11648      530.59647      1.9018631    
  89190000   268.57641      0              255.78381      493.55466      1.8767978    
  89200000   308.28399      0              274.93626      547.86026      0.041149439  
  89210000   298.66598      0              255.44556      519.85473      0.95069689   
  89220000   299.08342      0              263.07825      527.85697      1.0078472    
  89230000   307.14627      0              259.37116      531.28794      0.039853151  
  89240000   297.99007      0              260.99485      524.80563      0.72327736   
  89250000   299.10876      0              255.35974      520.1609       0.15139717   
  89260000   297.13985      0              298.33675      561.39483      1.0996251    
  89270000   276.03551      0              266.90817      511.28257     -2.3172854    
  89280000   323.65185      0              265.09069      551.61986     -0.93125368   
  89290000   284.03897      0              261.70456      513.16443     -0.83715635   
  89300000   300.12         0              267.65275      533.34916     -0.065548875  
  89310000   275.75686      0              251.46901      495.59672      0.30966328   
  89320000   278.00194      0              276.92835      523.04363     -0.46366723   
  89330000   294.99985      0              256.4518       517.61534      0.46912852   
  89340000   297.21669      0              255.58276      518.70888      2.5428725    
  89350000   264.3088       0              253.27304      487.26578      1.5099662    
  89360000   305.66256      0              272.95285      543.55609     -0.76918922   
  89370000   275.44402      0              270.97146      514.82221     -2.1941158    
  89380000   293.25624      0              252.03594      511.65586     -0.59512404   
  89390000   332.63793      0              272.17587      566.66042      0.0098515953 
  89400000   304.36324      0              250.08831      519.54127      0.097619556  
  89410000   298.12523      0              257.90464      521.83508     -0.39505778   
  89420000   302.04641      0              262.68896      530.09082     -1.5128455    
  89430000   302.31049      0              261.89974      529.5354      -0.24439813   
  89440000   300.18358      0              257.25683      523.00953     -0.59910689   
  89450000   311.85628      0              270.07152      546.15807     -0.51723639   
  89460000   291.63116      0              254.13117      512.31241     -0.50882447   
  89470000   297.91543      0              284.29638      548.04108     -1.4888875    
  89480000   320.0103       0              258.29952      541.60482      0.70976972   
  89490000   282.07888      0              278.00498      527.72958     -2.3823154    
  89500000   279.58204      0              270.61693      518.13107      0.71090729   
  89510000   319.19541      0              237.28027      519.86415      1.0464901    
  89520000   296.55281      0              263.86741      526.40578     -1.1186559    
  89530000   283.2472       0              268.19635      518.95526      0.42420397   
  89540000   281.00618      0              253.78456      502.5595      -0.40708186   
  89550000   316.60512      0              259.94084      540.23154     -0.56939215   
  89560000   283.44443      0              241.17941      492.11293     -0.96686406   
  89570000   285.54441      0              271.1326       523.92524      1.4403917    
  89580000   299.43707      0              254.65399      519.74581     -0.072972606  
  89590000   300.10019      0              291.2439       556.92277     -1.2178551    
  89600000   299.00827      0              259.8848       524.59699      0.84131438   
  89610000   294.06332      0              271.16941      531.50384     -0.26868105   
  89620000   308.54747      0              245.18158      518.33883      0.64100584   
  89630000   316.16188      0              269.0387       548.937       -2.4176165    
  89640000   306.97432      0              252.50317      524.26772     -0.18894917   
  89650000   284.5704       0              267.79985      519.73019     -0.53576057   
  89660000   303.46675      0              261.76138      530.42068     -0.79234141   
  89670000   319.14279      0              264.88241      547.41971      0.35912344   
  89680000   308.537        0              256.23956      529.38755      1.5743007    
  89690000   334.75636      0              244.74871      541.10872     -0.6683381    
  89700000   298.47898      0              271.19788      535.44149     -0.011451688  
  89710000   308.03083      0              251.5869       524.28678     -1.8672274    
  89720000   308.3491       0              277.05563      550.03727      0.5250434    
  89730000   315.73541      0              271.82179      551.34254      2.7999043    
  89740000   296.33714      0              263.50799      525.85543     -0.98969416   
  89750000   322.32027      0              262.63044      547.98076      2.4595499    
  89760000   282.18821      0              254.94068      504.76207     -0.9476433    
  89770000   306.76493      0              273.30996      544.88913     -0.11073789   
  89780000   277.79775      0              272.98529      518.9198       1.5019884    
  89790000   303.96614      0              255.78862      524.89003     -1.1709468    
  89800000   297.27039      0              273.64966      536.82331     -0.2690733    
  89810000   283.50327      0              262.92626      513.91187      1.2773849    
  89820000   291.04381      0              260.98083      518.64208      0.54952712   
  89830000   287.24527      0              270.29441      524.59282     -2.1580341    
  89840000   284.52443      0              254.60687      506.49651     -1.0598443    
  89850000   312.3634       0              255.19839      531.73389     -0.0079749562 
  89860000   294.97163      0              269.37171      530.51026     -1.0023992    
  89870000   298.61398      0              260.03865      524.40178     -0.25585683   
  89880000   297.16979      0              264.38615      527.47074      0.063678237  
  89890000   291.54585      0              241.51005      499.61577      0.52010157   
  89900000   307.0971       0              276.98104      548.85429      0.41237856   
  89910000   297.28381      0              272.19455      535.38008      0.039952012  
  89920000   316.41038      0              261.13982      541.25811     -0.89277879   
  89930000   304.52074      0              257.43481      527.0272       0.80044644   
  89940000   312.74079      0              267.47861      544.34822     -1.186702     
  89950000   298.78769      0              287.02519      551.5421       0.6961338    
  89960000   277.31776      0              273.68347      519.19305      0.042866335  
  89970000   315.34109      0              256.23527      535.40692      1.9030176    
  89980000   284.24832      0              275.84462      527.48982     -1.7030513    
  89990000   294.15313      0              259.67867      520.09262     -0.67375025   
  90000000   315.85837      0              263.09983      542.72944      1.0547024    
  90010000   280.97734      0              277.41865      526.16805     -0.58175556   
  90020000   313.39049      0              279.23835      556.68313      0.78809772   
  90030000   295.36459      0              262.01741      523.50386     -0.39733994   
  90040000   317.94353      0              247.80736      529.28295     -0.062356693  
  90050000   305.12056      0              252.11653      522.23994      1.7008737    
  90060000   298.76727      0              236.60888      501.10772      0.94718065   
  90070000   327.45368      0              283.85218      573.74712     -1.3008463    
  90080000   283.57541      0              269.64655      520.69603     -0.6283212    
  90090000   309.81576      0              228.35369      502.63376     -1.9942329    
  90100000   294.12319      0              270.2626       530.65003      0.079684712  
  90110000   296.61966      0              239.07018      501.66774      1.2328013    
  90120000   303.3921       0              280.43091      549.02411     -1.3047494    
  90130000   298.35141      0              253.78229      517.91297      1.5668251    
  90140000   296.20499      0              248.13677      510.36722     -0.13698389   
  90150000   280.57077      0              251.17751      499.56698      0.69145604   
  90160000   279.64237      0              259.6792       507.24676      0.458836     
  90170000   305.20736      0              274.96901      545.16926     -0.72533311   
  90180000   322.81987      0              294.54133      580.33395      0.57672121   
  90190000   306.37948      0              263.41364      534.65158     -0.50997077   
  90200000   333.20719      0              275.79403      570.78255      2.0845877    
  90210000   281.51959      0              257.21225      506.4417       0.013567811  
  90220000   310.20101      0              279.20338      553.82451      0.56546841   
  90230000   324.92547      0              262.41189      550.0686      -0.19169328   
  90240000   312.79197      0              250.11882      527.03374     -1.5451503    
  90250000   296.23365      0              265.91002      528.16585      1.9695386    
  90260000   322.34545      0              235.88015      521.25277     -0.61563471   
  90270000   278.81454      0              266.06268      512.89736     -0.10588254   
  90280000   302.40828      0              276.32889      544.05111      1.8606159    
  90290000   297.30795      0              256.03334      519.24025     -0.025828212  
  90300000   315.27808      0              263.20528      542.32115      0.3026759    
  90310000   317.10398      0              261.79028      542.52262     -0.39063506   
  90320000   290.65595      0              261.9217       519.23958     -0.98754198   
  90330000   299.64099      0              254.88618      520.15853      0.42744501   
  90340000   324.50609      0              268.46307      555.7485      -0.66524888   
  90350000   295.0025       0              262.40693      523.57281     -1.3058894    
  90360000   318.89385      0              265.30608      547.623        0.67173324   
  90370000   284.12869      0              249.08666      500.62596     -0.6599533    
  90380000   303.4997       0              248.48301      517.17147      0.2857526    
  90390000   309.49589      0              263.96134      537.95823      0.94325722   
  90400000   293.54174      0              267.57647      527.44915     -0.7570549    
  90410000   310.65189      0              253.7636       528.7839      -0.26969026   
  90420000   312.31878      0              231.29136      507.78735     -2.2889904    
  90430000   288.69753      0              251.33907      506.92316     -0.22101252   
  90440000   309.67508      0              259.71765      533.87318      0.83209456   
  90450000   304.8201       0              272.34518      542.20259      0.8808119    
  90460000   333.49944      0              248.81776      544.06501     -0.40526721   
  90470000   275.10245      0              285.09489      528.64325      1.3673733    
  90480000   293.75457      0              274.19036      534.25145      0.89746168   
  90490000   348.28537      0              264.43005      572.7673      -0.28154715   
  90500000   313.97424      0              269.57148      547.53306      1.1636947    
  90510000   318.54166      0              261.45797      543.46309      0.94404758   
  90520000   282.91651      0              264.79932      515.26548     -1.3482934    
  90530000   308.95916      0              267.25689      540.77861     -1.5535173    
  90540000   297.33218      0              255.25608      518.48443     -0.64172512   
  90550000   289.02766      0              248.78991      504.66626     -1.1579744    
  90560000   334.96937      0              257.22678      553.77536     -0.83452131   
  90570000   302.96535      0              259.96656      528.18196     -0.19351672   
  90580000   296.53996      0              260.40828      522.93528     -1.0777508    
  90590000   312.02631      0              264.38306      540.62013     -1.1781615    
  90600000   322.20876      0              274.01632      559.26792      0.31432198   
  90610000   301.09599      0              283.41419      549.97465      1.2331685    
  90620000   309.98865      0              258.75247      533.1856      -1.5976644    
  90630000   303.44036      0              270.46064      539.09657      0.66043205   
  90640000   313.87954      0              252.05293      529.93067      0.42234122   
  90650000   312.24161      0              267.68133      544.10901     -1.1974132    
  90660000   300.01851      0              264.44005      530.04662      0.90168783   
  90670000   318.80746      0              278.97563      561.21606      0.44860259   
  90680000   282.27794      0              258.89004      508.79086      0.79528311   
  90690000   283.17531      0              261.07294      511.7682       0.89453861   
  90700000   294.15765      0              289.33426      549.7522      -1.1806238    
  90710000   300.99114      0              261.04928      527.51691      0.33993343   
  90720000   320.6999       0              259.36727      543.28307     -0.79885485   
  90730000   299.22043      0              254.93835      519.83837      1.3175779    
  90740000   310.25233      0              268.55377      543.22034      0.68245004   
  90750000   298.95076      0              260.86497      525.52626      0.10765661   
  90760000   302.4456       0              273.37181      541.12708      0.50988544   
  90770000   311.32131      0              270.79416      546.4071       1.5913772    
  90780000   317.66064      0              257.87423      539.09938     -1.2965415    
  90790000   297.21919      0              282.80599      545.93431     -0.39828217   
  90800000   309.29391      0              260.40547      534.22356     -0.50087936   
  90810000   314.63423      0              293.02437      571.57024      0.42745546   
  90820000   277.53993      0              271.43144      517.1377       1.0504795    
  90830000   289.17742      0              254.73962      510.74856     -0.1986793    
  90840000   296.00406      0              271.95331      534.00589     -0.12116844   
  90850000   290.75282      0              267.61742      525.02106     -1.5776896    
  90860000   306.99447      0              260.70423      532.48661      0.38488568   
  90870000   321.70782      0              252.15336      536.96148      0.56688773   
  90880000   298.01399      0              266.34266      530.17462      0.35175412   
  90890000   301.20286      0              276.19095      542.84602      0.67992152   
  90900000   308.30629      0              272.35759      545.30133     -0.91309325   
  90910000   322.75557      0              267.40904      553.14473      0.082616192  
  90920000   319.3879       0              252.08225      534.83654     -0.18524211   
  90930000   288.17223      0              266.4046       521.52364     -0.080155141  
  90940000   313.41868      0              251.67871      529.14846      0.38262861   
  90950000   298.30235      0              258.78668      522.87393     -0.71785176   
  90960000   304.30688      0              258.30851      527.71157      2.7133886    
  90970000   311.93035      0              272.62645      548.77857      0.72434596   
  90980000   328.52468      0              258.82258      549.66567      0.1024613    
  90990000   286.09923      0              252.60478      505.8886      -0.97689216   
  91000000   303.55275      0              275.00829      543.74372     -1.2565288    
  91010000   300.66407      0              262.2478       528.42587     -0.92599804   
  91020000   299.10456      0              266.76724      531.56468      0.17989471   
  91030000   320.9619       0              265.43504      549.5828       0.94474258   
  91040000   326.5341       0              267.81176      556.89259      0.11842453   
  91050000   299.43447      0              247.18978      512.27929     -0.051137491  
  91060000   291.20152      0              269.87946      527.68033     -1.2235047    
  91070000   295.28989      0              261.89071      523.31103      0.44126942   
  91080000   303.83891      0              231.31957      500.30833     -0.57673128   
  91090000   301.81107      0              272.25955      539.45307     -2.3861581    
  91100000   303.35692      0              261.06799      529.63005     -0.77190711   
  91110000   313.91464      0              256.17617      534.08499      1.6427976    
  91120000   291.16805      0              258.53791      516.30916     -1.7997886    
  91130000   311.22753      0              262.16223      537.69214      2.0499142    
  91140000   284.028        0              236.584        488.03415     -0.85379993   
  91150000   306.08429      0              258.6923       529.66889      1.6818318    
  91160000   317.61385      0              259.47361      540.65733      0.84143206   
  91170000   268.01091      0              273.12625      510.39647     -1.6399099    
  91180000   314.7619       0              279.1927       557.85159     -0.90089905   
  91190000   305.50405      0              255.58027      526.04318     -1.0623634    
  91200000   280.04179      0              252.52724      500.4484       0.090644174  
  91210000   299.95021      0              229.29363      494.83972      1.1172969    
  91220000   303.98871      0              257.34021      526.46159      0.49184199   
  91230000   287.35857      0              274.15125      528.54996      1.2599022    
  91240000   307.21011      0              239.31181      511.28509      1.9679255    
  91250000   295.30201      0              273.25189      534.68293     -0.42154338   
  91260000   320.76247      0              246.38701      530.35822      0.48315604   
  91270000   308.33229      0              282.98111      555.94787     -0.34971356   
  91280000   283.25349      0              245.95186      496.71634      2.2110706    
  91290000   293.05132      0              266.9778       526.41631     -0.080450035  
  91300000   294.30309      0              256.86404      517.41074      0.32752524   
  91310000   306.25019      0              269.08267      540.20614     -1.4293801    
  91320000   285.15845      0              255.72439      508.17533      0.16814187   
  91330000   286.65431      0              280.32771      534.10294     -2.1920532    
  91340000   324.64546      0              272.95795      560.36677      0.53707209   
  91350000   277.4983       0              264.0068       509.67621      0.2139379    
  91360000   290.0487       0              256.12676      512.90705     -1.2519222    
  91370000   306.93856      0              267.8846       539.61749     -1.0637969    
  91380000   315.72616      0              293.45984      572.97239     -0.61654471   
  91390000   314.16506      0              253.58123      531.71174      0.54432861   
  91400000   285.08827      0              291.50766      543.89646      1.4870813    
  91410000   283.09671      0              262.11819      512.74387      1.2442387    
  91420000   301.54703      0              253.95011      520.90987      0.48841805   
  91430000   298.11361      0              251.99878      515.91893     -0.12570199   
  91440000   296.4027       0              260.06985      522.47533     -0.40120691   
  91450000   275.86676      0              276.674        520.899        1.1799754    
  91460000   297.97637      0              251.41125      515.2099      -0.27961364   
  91470000   273.62829      0              265.75328      507.99656     -0.6719987    
  91480000   318.31101      0              273.98737      555.78829      2.3286914    
  91490000   314.65362      0              276.21914      554.78217      0.81103653   
  91500000   316.59471      0              258.96097      539.24246      0.13814837   
  91510000   287.20261      0              263.43583      517.69647     -0.45809028   
  91520000   319.6191       0              285.09634      568.05532     -1.9816991    
  91530000   322.74481      0              278.44627      564.17244     -0.49000315   
  91540000   338.59022      0              249.69292      549.44704     -0.37460746   
  91550000   294.42349      0              235.31218      495.96547     -0.62472834   
  91560000   311.84368      0              255.46366      531.53905      0.30836533   
  91570000   280.44968      0              270.06109      518.34335     -0.46432407   
  91580000   309.25376      0              236.03606      509.8186      -0.18892722   
  91590000   290.03361      0              237.49916      494.26609      1.190788     
  91600000   296.78296      0              292.73754      555.47967      1.2482674    
  91610000   322.30516      0              263.42663      548.76357     -1.2289035    
  91620000   281.08664      0              266.11043      514.9566       1.0191569    
  91630000   296.16151      0              263.29466      525.48662     -1.4621232    
  91640000   296.20846      0              258.85511      521.08864      0.23986587   
  91650000   294.45768      0              250.65927      511.34283      1.0780049    
  91660000   300.61559      0              261.83181      527.96697      0.57890033   
  91670000   345.38125      0              254.66465      560.43087     -0.6382334    
  91680000   298.79691      0              276.57374      541.09882     -1.2917608    
  91690000   321.13134      0              266.45562      550.75338      0.23757973   
  91700000   300.73698      0              246.43024      512.67286     -0.14723639   
  91710000   314.25883      0              266.09914      544.31267      0.77262406   
  91720000   294.18554      0              263.47569      523.91832     -0.88327475   
  91730000   302.00493      0              262.83538      530.20053      1.1044049    
  91740000   307.20665      0              254.27312      526.24335     -0.55156422   
  91750000   284.08979      0              265.24982      516.75467     -1.6226674    
  91760000   310.61417      0              260.54524      535.53215     -1.1325158    
  91770000   310.98271      0              266.16119      541.47436     -1.2514558    
  91780000   291.38855      0              270.35952      528.32597      0.29875336   
  91790000   310.00401      0              265.87275      540.31948      0.38589093   
  91800000   302.03969      0              264.61703      532.01294      1.2259476    
  91810000   278.47009      0              273.11594      519.64567     -0.74131912   
  91820000   299.26794      0              246.31485      511.25693      0.95882379   
  91830000   292.08554      0              275.68625      534.26975     -0.12896638   
  91840000   307.15816      0              265.50034      537.42764     -0.53800209   
  91850000   311.14112      0              266.67882      542.13224     -0.88093028   
  91860000   293.36188      0              250.42041      510.13386      1.1643487    
  91870000   304.388        0              258.07759      527.55246     -0.62049025   
  91880000   294.34883      0              277.81932      538.40651     -0.84494868   
  91890000   281.96219      0              287.0876       536.70889     -2.8921657    
  91900000   320.47902      0              265.03279      548.75305     -1.2395726    
  91910000   277.44636      0              253.75368      499.3771      -0.6564106    
  91920000   284.36248      0              264.30079      516.04706      1.0054217    
  91930000   291.92506      0              269.15737      527.59881     -0.42735555   
  91940000   304.88647      0              242.9789       512.89507     -0.55298639   
  91950000   296.5473       0              259.15351      521.687       -0.67735306   
  91960000   306.28859      0              239.99887      511.15634      1.0186766    
  91970000   273.94347      0              270.71751      513.23982     -0.15675228   
  91980000   285.84027      0              247.96096      501.01552      0.10629245   
  91990000   278.31236      0              250.80421      497.1943       0.79161919   
  92000000   304.8059       0              276.95327      546.79811     -0.13461966   
  92010000   310.10016      0              258.13233      532.66418     -0.68003815   
  92020000   320.43962      0              278.09611      561.7815       0.073806684  
  92030000   303.0694       0              227.04271      495.35023      1.0911344    
  92040000   286.97351      0              266.66181      520.71962     -1.8406035    
  92050000   327.11966      0              264.90876      554.50799      2.7061954    
  92060000   303.24772      0              246.94701      515.4124      -0.65862148   
  92070000   290.14739      0              277.77783      534.64549     -0.11627547   
  92080000   287.79432      0              264.19639      518.98087      0.69085562   
  92090000   304.03997      0              276.95532      546.12209     -0.29747978   
  92100000   314.94756      0              263.85757      542.68082     -0.11533189   
  92110000   291.6222       0              272.55689      530.7302      -1.5689337    
  92120000   298.23735      0              264.63699      528.66669     -0.9751144    
  92130000   299.77957      0              247.03425      512.42928      1.0731417    
  92140000   320.55312      0              264.13545      547.92132      0.13302715   
  92150000   292.05371      0              268.19401      526.74932     -0.66761057   
  92160000   285.67346      0              248.9335       501.84038      0.04207578   
  92170000   285.33697      0              250.45026      503.05925      0.31378573   
  92180000   302.38143      0              262.69265      530.39111     -0.26277402   
  92190000   274.22418      0              259.201        501.97183      0.10621531   
  92200000   286.9197       0              266.39158      520.40176      0.53222779   
  92210000   282.38092      0              273.63887      523.63087     -1.0490607    
  92220000   300.95496      0              258.37013      524.80573      0.75400725   
  92230000   298.20971      0              253.22551      517.23075     -1.327311     
  92240000   305.74302      0              265.96928      536.64375      0.23840358   
  92250000   291.39443      0              281.51716      539.48882      1.7676804    
  92260000   300.38984      0              262.10102      528.03633     -2.1186861    
  92270000   302.64454      0              263.2365       531.16789      0.37087563   
  92280000   285.93929      0              266.30327      519.44549      1.0460243    
  92290000   316.29769      0              276.47064      556.48917      0.17330127   
  92300000   328.82125      0              257.23511      548.34076     -1.312911     
  92310000   321.00043      0              265.64863      549.83049     -1.1410424    
  92320000   273.59033      0              233.35037      475.56005     -0.39827006   
  92330000   322.45568      0              274.20324      559.67344     -1.3203858    
  92340000   287.24853      0              261.97858      516.27987      0.7707032    
  92350000   325.07198      0              259.5609       547.34732      0.6095835    
  92360000   293.23006      0              263.11284      522.70958      0.1576499    
  92370000   300.51419      0              253.30279      519.34817      0.4302296    
  92380000   297.21297      0              270.91128      534.03409     -0.32386837   
  92390000   309.88332      0              263.50678      537.84667     -0.89723031   
  92400000   327.14226      0              254.89906      544.51829     -2.2039265    
  92410000   300.84254      0              271.52721      537.86328     -1.1265122    
  92420000   290.26257      0              289.10151      546.07113     -0.69533839   
  92430000   322.04734      0              285.32699      570.43569     -1.4592712    
  92440000   304.51199      0              286.79331      556.37795      1.9516282    
  92450000   288.88365      0              257.52798      513.27684     -0.35097211   
  92460000   311.09037      0              255.94901      531.3575      -0.60520768   
  92470000   301.02219      0              265.64637      532.14149     -1.0209108    
  92480000   294.5732       0              270.73417      531.51999     -0.76529674   
  92490000   330.73268      0              280.82038      573.61822      0.23584377   
  92500000   262.2525       0              269.79248      501.96478     -0.67982624   
  92510000   316.58679      0              271.49323      551.76771      0.31845041   
  92520000   286.14971      0              251.8996       505.2281      -1.0760173    
  92530000   305.94554      0              265.52464      536.37841     -0.57011768   
  92540000   294.36237      0              263.43713      524.03631      0.027846452  
  92550000   301.16162      0              263.77228      530.39084      0.15248436   
  92560000   297.12533      0              270.03011      533.07534     -1.3354696    
  92570000   265.49824      0              272.30384      507.34959     -1.3080311    
  92580000   329.58668      0              261.04355      552.82683      0.98005227   
  92590000   299.31175      0              261.99395      526.97482      0.29757522   
  92600000   313.73208      0              273.29112      551.03831      1.4782517    
  92610000   287.99446      0              277.57404      532.5357      -0.45875848   
  92620000   300.60263      0              255.96008      522.08376      1.2450259    
  92630000   303.93917      0              257.53628      526.61381     -1.5106       
  92640000   287.14001      0              266.37792      520.58313     -0.36258042   
  92650000   318.6082       0              260.3853       542.44933     -1.189623     
  92660000   317.47809      0              273.5538       554.61734      1.8771952    
  92670000   273.94126      0              261.53248      504.05284     -0.61695001   
  92680000   293.63778      0              298.82815      558.78585     -3.3856978    
  92690000   304.59663      0              250.06657      519.72615     -0.52682939   
  92700000   332.27493      0              263.48649      557.64968      0.47071911   
  92710000   308.37311      0              259.34933      532.35223     -1.7465869    
  92720000   293.83889      0              265.32511      525.46085     -0.2785098    
  92730000   301.82461      0              260.19005      527.39555     -0.44153571   
  92740000   283.2584       0              257.23342      508.00224      0.34602307   
  92750000   297.34246      0              257.89857      521.13603      0.76144222   
  92760000   303.25141      0              273.08864      541.55729      0.13576114   
  92770000   285.58535      0              260.4253       513.25418      0.78850208   
  92780000   286.88584      0              255.39859      509.37879     -0.33224776   
  92790000   295.51607      0              267.2713       528.89185     -0.27159696   
  92800000   294.25132      0              246.84845      507.34931     -1.9171934    
  92810000   270.00031      0              255.20894      494.24037     -0.99052719   
  92820000   316.66746      0              241.44982      521.79571      1.1102127    
  92830000   305.26378      0              261.57693      531.82713     -0.48892678   
  92840000   284.61779      0              270.68706      522.65935      0.3071161    
  92850000   291.82319      0              245.66934      504.02058      0.38777548   
  92860000   317.40387      0              274.1977       555.19553      0.17757201   
  92870000   279.63845      0              273.09856      520.66265      0.89675467   
  92880000   288.51015      0              260.22908      515.64728      1.8904618    
  92890000   302.58801      0              257.50726      525.3886      -0.050277828  
  92900000   304.63436      0              265.62847      535.32145     -0.45953884   
  92910000   293.99784      0              276.93901      537.21547     -0.38594039   
  92920000   304.06194      0              250.46682      519.65303      1.7041989    
  92930000   319.77898      0              271.37966      554.48017      1.5644467    
  92940000   330.22883      0              271.11341      563.46518      0.53945685   
  92950000   298.31072      0              274.96136      539.05602     -0.41736768   
  92960000   296.83319      0              264.77471      527.56131     -0.53771243   
  92970000   289.6218       0              254.77749      511.17983     -0.80467638   
  92980000   293.0476       0              266.40742      525.84264      0.017475771  
  92990000   295.92577      0              250.9024       512.88566      0.078678829  
  93000000   276.89529      0              249.63981      494.77537     -0.64440929   
  93010000   302.72643      0              271.82179      539.82568     -0.70567214   
  93020000   294.6899       0              265.32609      526.21523     -0.87720327   
  93030000   286.76557      0              261.34428      515.218       -0.74497149   
  93040000   289.95059      0              263.33378      520.02721     -0.78326451   
  93050000   296.17876      0              281.59418      543.80141      1.4290147    
  93060000   305.27994      0              267.04043      537.30494      1.5521334    
  93070000   303.98715      0              279.72092      548.84092      0.90801638   
  93080000   323.40246      0              266.01384      552.32223     -0.37170339   
  93090000   298.10632      0              250.17363      514.08732      0.87139661   
  93100000   306.1156       0              254.60546      525.60978     -0.95322906   
  93110000   321.68896      0              239.01489      523.80631      0.41781198   
  93120000   314.44052      0              259.07567      537.45005     -0.19607447   
  93130000   297.82282      0              250.10791      513.77062      2.1469824    
  93140000   307.55773      0              262.93964      535.22068     -1.0357464    
  93150000   297.32149      0              261.16204      524.38092     -0.35324214   
  93160000   282.76072      0              255.41778      505.746       -0.061546545  
  93170000   308.8301       0              265.87153      539.27899      0.076909015  
  93180000   298.70189      0              255.6004       520.04136      0.36361887   
  93190000   291.19957      0              269.22865      527.0278      -1.4896178    
  93200000   289.88435      0              287.88417      544.51895     -2.0593612    
  93210000   281.19993      0              256.96433      505.91079     -1.2190879    
  93220000   314.48353      0              241.99389      520.40635     -1.0216423    
  93230000   277.78591      0              237.14392      483.06795      0.4195253    
  93240000   271.86543      0              240.59693      481.27956      1.0041905    
  93250000   293.82584      0              263.36944      523.49363     -0.869408     
  93260000   294.65783      0              253.92194      514.78269     -0.61244888   
  93270000   287.19798      0              259.40248      513.65902      0.22376357   
  93280000   296.51985      0              276.91197      539.42117      0.22200913   
  93290000   285.62922      0              266.17731      519.04503     -0.058018916  
  93300000   274.83179      0              270.67721      513.98596     -0.42161702   
  93310000   260.21584      0              278.98865      509.35789      0.6916048    
  93320000   311.61014      0              266.86295      542.73159      0.0058971611 
  93330000   310.35221      0              285.48573      560.24073      0.95822706   
  93340000   286.44492      0              256.6865       510.27636     -0.22830454   
  93350000   299.65923      0              275.64872      540.93721     -0.47826881   
  93360000   294.87069      0              269.56139      530.61058      0.52032948   
  93370000   287.86116      0              267.29554      522.1392      -0.059035523  
  93380000   314.49311      0              250.18747      528.60841      1.0882722    
  93390000   303.70058      0              264.84653      533.71283     -0.67646976   
  93400000   287.06889      0              281.16969      535.31195      1.0902377    
  93410000   272.59947      0              269.24302      510.57549      0.54315155   
  93420000   294.1791       0              253.39004      513.82697     -0.50829144   
  93430000   311.48285      0              256.05752      531.81347     -0.0990194    
  93440000   279.9162       0              275.14061      522.95059      0.20250664   
  93450000   276.65025      0              271.20447      516.12309      0.038161624  
  93460000   276.18581      0              272.07996      516.58742     -0.61557925   
  93470000   303.67088      0              265.36831      534.20832     -2.0104286    
  93480000   331.27861      0              269.18359      562.46474      1.8839176    
  93490000   288.62049      0              250.26182      505.77771     -0.62060043   
  93500000   292.17777      0              259.38201      518.04716     -0.34578986   
  93510000   297.64382      0              259.30724      522.81149      0.84236981   
  93520000   303.06534      0              267.38626      535.69018     -0.9328117    
  93530000   291.69609      0              295.42894      553.66766      0.061123064  
  93540000   295.37213      0              259.15579      520.64891     -0.64569535   
  93550000   312.65399      0              268.90347      545.69624     -0.73681472   
  93560000   307.43459      0              271.4035       543.57553     -1.6772262    
  93570000   311.3361       0              244.74155      520.36758      0.53554224   
  93580000   314.60825      0              283.70438      562.22725      1.4004422    
  93590000   327.66632      0              261.78033      551.86352      0.47888046   
  93600000   304.20867      0              275.21132      544.52743     -2.2494423    
  93610000   272.15539      0              268.26497      509.20429      0.25521896   
  93620000   317.14092      0              256.16651      536.93156     -0.44519937   
  93630000   279.93146      0              255.77828      503.60176      1.9997428    
  93640000   325.75988      0              294.23469      582.63011      1.3302546    
  93650000   276.92246      0              251.68584      496.84546      1.4074088    
  93660000   303.17491      0              272.37337      540.7743      -0.54188532   
  93670000   287.11041      0              267.97063      522.14965     -0.22639104   
  93680000   310.73792      0              255.16443      530.26088     -0.30954618   
  93690000   309.33722      0              267.91305      541.76947     -2.1279533    
  93700000   309.26113      0              279.30574      553.09479     -0.19243798   
  93710000   271.07059      0              280.88509      520.86404     -2.1258228    
  93720000   297.4507       0              262.2361       525.56938      0.43524857   
  93730000   302.69585      0              266.25283      534.22964      0.078297154  
  93740000   314.36988      0              255.4862       533.79804      0.30055681   
  93750000   321.18122      0              241.81381      526.15573     -0.53020703   
  93760000   298.9626       0              243.08416      507.75592      2.3400872    
  93770000   295.97982      0              258.87867      520.90978      0.59737611   
  93780000   307.26772      0              272.19536      544.21966     -0.60989838   
  93790000   299.07504      0              280.43894      545.21025     -0.86094845   
  93800000   308.6098       0              259.46522      532.67766     -0.62893908   
  93810000   312.45746      0              260.61351      537.23229     -0.22647344   
  93820000   305.35543      0              267.8262       538.15754     -1.1952227    
  93830000   286.42426      0              259.78771      513.35927      2.8210064    
  93840000   288.56822      0              270.7503       526.21991      1.0274958    
  93850000   309.25808      0              274.11806      547.90442      1.2668381    
  93860000   282.2716       0              273.84786      523.74307     -0.35965093   
  93870000   296.53136      0              257.57029      520.08968      0.34218935   
  93880000   272.24578      0              272.87391      513.89325     -0.15085571   
  93890000   287.85484      0              256.72327      511.56132      0.075672334  
  93900000   293.84361      0              256.89801      517.03793      0.088362615  
  93910000   288.37758      0              245.51474      500.81558      0.042270151  
  93920000   312.3212       0              270.71188      547.21002     -0.20584413   
  93930000   307.13157      0              241.77025      513.674        0.82584912   
  93940000   292.6193       0              270.07241      529.12845      1.0792334    
  93950000   300.92953      0              241.48528      507.89837      0.14734648   
  93960000   294.35141      0              265.48104      526.07051      0.26628299   
  93970000   271.9627       0              257.85753      498.62627      0.39557607   
  93980000   264.12982      0              254.01782      487.85211      0.31843091   
  93990000   285.15583      0              255.70101      508.14964     -1.6643509    
  94000000   284.71302      0              280.16187      532.21847      0.53420932   
  94010000   306.32839      0              247.60016      518.79286      0.71895227   
  94020000   334.67315      0              226.76091      523.04725     -0.17791721   
  94030000   305.29215      0              253.94991      524.22523      1.1485674    
  94040000   300.08609      0              285.60124      551.26763      0.44895286   
  94050000   315.3497       0              261.86439      541.04366     -1.1866442    
  94060000   339.02886      0              287.48077      587.62323      0.19438806   
  94070000   300.39792      0              286.67627      552.61872     -2.174724     
  94080000   310.89229      0              260.08645      535.31957     -0.32761119   
  94090000   286.89381      0              261.81672      515.80398      1.3207787    
  94100000   313.1776       0              267.89777      545.15408      0.58052734   
  94110000   311.60279      0              269.06722      544.92935     -1.878995     
  94120000   304.69772      0              276.07738      545.82646     -2.3845556    
  94130000   299.54515      0              251.91455      517.10204     -0.3121132    
  94140000   287.5227       0              254.97339      509.5174      -2.1384102    
  94150000   304.87123      0              253.0666       522.96927      1.3261595    
  94160000   303.29691      0              269.39196      537.90089      0.35822934   
  94170000   291.23094      0              277.89066      535.71758      0.56594923   
  94180000   311.64322      0              269.90092      545.79885     -0.24619945   
  94190000   294.08898      0              251.07828      511.43542     -0.26656196   
  94200000   291.67291      0              278.08899      536.30719     -0.41990245   
  94210000   303.77109      0              237.50309      506.43182      0.94479605   
  94220000   331.38712      0              272.79843      566.17564     -1.0181504    
  94230000   304.42829      0              247.77541      517.28595     -0.1440708    
  94240000   287.48378      0              262.3064       516.81596      0.04783322   
  94250000   302.28715      0              268.3259       535.9409       1.3300437    
  94260000   286.31007      0              262.59366      516.06413      1.0185673    
  94270000   310.62377      0              293.43234      568.42775     -0.14941022   
  94280000   284.47717      0              275.15128      526.99908     -0.39195608   
  94290000   312.70368      0              264.85944      541.69619      0.16165258   
  94300000   285.70379      0              250.96965      503.90338     -1.1978151    
  94310000   332.08663      0              251.6224       545.61889     -0.37307619   
  94320000   311.17516      0              269.18627      544.66982      1.0135448    
  94330000   295.4059       0              264.50799      526.03101      0.12223659   
  94340000   327.36156      0              245.47783      535.2912      -0.066801616  
  94350000   279.50204      0              269.67678      517.1201       1.5669521    
  94360000   291.60338      0              243.95597      502.11262     -0.16068854   
  94370000   288.20795      0              272.63906      527.78973     -0.53995179   
  94380000   314.43575      0              246.97984      525.34999     -0.096865722  
  94390000   293.97697      0              287.54842      547.80641      0.051199622  
  94400000   302.04104      0              251.24961      518.64672     -0.57554668   
  94410000   258.3082       0              272.82603      501.50643      0.87439988   
  94420000   312.77409      0              243.65058      520.54967     -0.57272661   
  94430000   327.59445      0              251.96412      541.98368      1.0700766    
  94440000   295.18999      0              263.97988      525.31176     -1.0572818    
  94450000   289.23485      0              255.35915      511.41893      2.0517015    
  94460000   308.32943      0              264.37817      537.3424      -1.4685412    
  94470000   292.83869      0              271.92563      531.1759      -0.91063665   
  94480000   310.90697      0              284.03072      559.27684     -1.6447761    
  94490000   290.97614      0              277.57642      535.17777     -0.32737986   
  94500000   309.04667      0              269.1813       542.78051      2.0313987    
  94510000   274.67707      0              279.86068      523.03245     -0.33429522   
  94520000   340.61435      0              220.56276      522.10884      0.70656402   
  94530000   297.34301      0              238.23121      501.46915      2.4821132    
  94540000   306.1353       0              249.66935      520.69111     -0.058423014  
  94550000   310.1716       0              282.54963      557.14473      0.12248192   
  94560000   306.90846      0              274.80822      546.51446     -0.028859339  
  94570000   324.45139      0              262.56298      549.79998      0.70526386   
  94580000   304.29328      0              282.71987      552.11088      0.90110212   
  94590000   280.30968      0              268.80868      516.96701      0.5447301    
  94600000   296.70026      0              232.47676      495.14567      1.3351939    
  94610000   266.31808      0              255.37391      491.14546      1.0322705    
  94620000   293.42521      0              263.08295      522.85246     -1.801247     
  94630000   302.49219      0              277.10911      544.90562      0.016053646  
  94640000   306.46649      0              259.13288      530.44784      0.42219737   
  94650000   307.68009      0              282.05856      554.44792      0.79891167   
  94660000   302.20901      0              262.0993       529.64511     -0.76904882   
  94670000   301.40434      0              269.88766      536.7211      -2.8278088    
  94680000   297.54496      0              273.06208      536.47881      0.41965275   
  94690000   301.31683      0              266.03895      532.79492     -0.055363823  
  94700000   313.10689      0              271.51618      548.70989     -1.4797552    
  94710000   302.119        0              256.63625      524.10238     -0.033611491  
  94720000   288.66939      0              295.17051      550.72969      0.32627791   
  94730000   301.49249      0              262.73638      529.64786      0.14355528   
  94740000   313.76129      0              267.52846      545.30152      1.9560819    
  94750000   292.35733      0              246.28031      505.10442      1.1288249    
  94760000   296.31852      0              264.71153      527.04249     -1.2289668    
  94770000   319.13509      0              250.89899      533.42947      0.76524027   
  94780000   334.35108      0              255.45518      551.45639      0.87173898   
  94790000   295.92833      0              261.05513      523.04065      0.19554633   
  94800000   298.6194       0              282.68583      547.05376      0.97002799   
  94810000   290.55818      0              254.82125      512.05257      0.64731095   
  94820000   316.14698      0              266.7387       546.6238       1.7601415    
  94830000   289.98852      0              253.50508      510.23208     -0.87846276   
  94840000   305.8717       0              264.36011      535.14851     -1.6762428    
  94850000   320.11362      0              290.20755      573.60432     -0.97639517   
  94860000   303.32627      0              259.54284      528.07777      0.27963211   
  94870000   289.19337      0              270.57069      526.59375     -0.057770508  
  94880000   303.1806       0              232.32338      500.72935     -0.46623253   
  94890000   330.4884       0              267.38707      559.96865     -0.74380444   
  94900000   306.23102      0              250.85602      521.96252     -1.5560498    
  94910000   296.87306      0              249.20904      512.03093      0.77429773   
  94920000   291.92278      0              268.60057      527.03998      0.18532556   
  94930000   295.82925      0              257.84054      519.73835     -0.50818708   
  94940000   285.04802      0              251.45483      503.80801     -1.0320304    
  94950000   308.52453      0              275.06652      548.20346     -0.18774092   
  94960000   275.73003      0              258.72133      502.82528      0.81571776   
  94970000   313.42658      0              258.67442      536.15116     -1.5322323    
  94980000   305.73157      0              272.24609      542.91042     -0.046836415  
  94990000   300.74792      0              273.87879      540.1311       1.6785636    
  95000000   305.20897      0              258.13449      528.33617     -0.30129608   
  95010000   279.3242       0              269.60936      516.89524     -0.89642095   
  95020000   295.4382       0              274.12644      535.67805      2.544655     
  95030000   304.15894      0              270.59604      539.86812      1.0679851    
  95040000   291.92351      0              263.38788      521.82793     -0.80893417   
  95050000   315.29357      0              304.40562      583.5352       1.0079633    
  95060000   316.19176      0              273.66414      553.58889      0.55572599   
  95070000   292.03767      0              259.65229      518.19341     -0.49816443   
  95080000   320.55546      0              250.44761      534.23554      0.38997224   
  95090000   309.54012      0              281.59989      555.63594     -0.97798399   
  95100000   307.85784      0              253.26467      525.81139      0.55460369   
  95110000   321.41791      0              262.91173      547.4632      -1.6455002    
  95120000   294.13384      0              256.65583      517.05269     -2.3613333    
  95130000   301.37067      0              251.90241      518.70604     -2.0887258    
  95140000   298.75808      0              254.10235      518.59305     -1.5351446    
  95150000   303.54455      0              268.98852      537.71669     -1.2688071    
  95160000   300.83375      0              263.58308      529.91137      1.384348     
  95170000   302.76651      0              275.27411      543.31348      0.21924056   
  95180000   303.4367       0              261.68153      530.31421     -1.8146251    
  95190000   312.08145      0              254.74521      531.0311      -1.666315     
  95200000   311.42492      0              278.31907      554.02373      0.7432181    
  95210000   304.85817      0              243.46375      513.35487     -0.27748668   
  95220000   340.77957      0              296.93317      598.62552      0.39185606   
  95230000   308.13778      0              266.72448      539.51904     -0.27153004   
  95240000   308.12002      0              257.9692       530.74803      0.033926393  
  95250000   284.14642      0              275.38935      526.94434      0.61569987   
  95260000   309.8362       0              279.09331      553.39148      1.6873124    
  95270000   307.01644      0              251.48328      523.28511     -1.5970351    
  95280000   286.41112      0              253.93376      507.49369      0.72225654   
  95290000   270.26891      0              251.79437      491.06359     -1.1066616    
  95300000   296.89024      0              250.79642      513.63353     -1.6248653    
  95310000   298.96864      0              270.87463      535.55174      1.6040038    
  95320000   295.823        0              268.99273      530.88501     -0.053018977  
  95330000   316.14152      0              252.83374      532.71402     -0.48578887   
  95340000   288.26622      0              236.8544       492.05665     -0.66263465   
  95350000   309.31705      0              261.50573      535.34429     -0.13387219   
  95360000   303.58508      0              267.44721      536.21127      0.050648911  
  95370000   302.52733      0              267.65662      535.48424      1.0252884    
  95380000   311.04826      0              247.16848      522.53969     -0.50171713   
  95390000   306.69499      0              276.05889      547.57615     -0.40201834   
  95400000   314.20896      0              242.3315       520.50087      1.8257959    
  95410000   292.47117      0              278.64989      537.57479     -0.42132677   
  95420000   281.29052      0              270.70073      519.72739      0.634594     
  95430000   299.50147      0              244.89105      510.03988     -1.3217734    
  95440000   300.64967      0              275.47439      541.63972     -1.2788295    
  95450000   280.47707      0              256.60699      504.9135       0.61937056   
  95460000   305.30242      0              274.50422      544.78863      1.5064578    
  95470000   293.03814      0              253.81695      513.24379     -0.34435735   
  95480000   289.32505      0              278.00848      534.14812     -0.33964228   
  95490000   272.12911      0              250.78203      491.69809      0.66546226   
  95500000   300.49641      0              265.26819      531.29784     -1.2430655    
  95510000   295.05117      0              273.85421      535.06318      0.65586347   
  95520000   303.86604      0              237.94886      506.96164      0.51861253   
  95530000   310.99447      0              258.07766      533.40125     -0.66336267   
  95540000   319.88778      0              279.99523      563.19207      0.11494824   
  95550000   311.77031      0              262.66654      538.67698     -0.075377673  
  95560000   313.13653      0              265.25782      542.47778      0.62311103   
  95570000   304.91828      0              254.26182      524.20615     -0.82779154   
  95580000   310.01779      0              267.85157      542.3105      -0.82539092   
  95590000   295.20859      0              251.61355      512.96189      0.40624263   
  95600000   312.1734       0              251.79499      528.16229     -0.28769836   
  95610000   313.15031      0              244.37587      521.60803     -1.2073582    
  95620000   313.99092      0              262.16917      540.14552      0.65114389   
  95630000   295.10816      0              258.99596      520.25539      0.19957246   
  95640000   316.28686      0              261.0668       541.07575      0.13452535   
  95650000   319.12122      0              292.9391       575.4573       0.16491235   
  95660000   298.91086      0              259.55763      524.1836      -1.0255496    
  95670000   295.5391       0              241.79258      503.43352      0.2243291    
  95680000   318.17149      0              265.0583       546.7357      -1.1426644    
  95690000   292.78008      0              262.01207      521.21044     -1.7326986    
  95700000   304.84082      0              269.47281      539.34857     -0.09197851   
  95710000   303.39894      0              260.68611      529.28537      1.923392     
  95720000   269.82691      0              265.05062      503.92854     -0.52454181   
  95730000   283.69942      0              255.73577      506.89503      1.0089958    
  95740000   285.28406      0              268.25869      520.82084      0.016095741  
  95750000   287.52975      0              264.75799      519.30825      0.24445006   
  95760000   292.53944      0              255.60312      514.58846     -0.97149257   
  95770000   294.71437      0              218.10532      479.01612      0.46454532   
  95780000   305.83468      0              270.92761      541.68323      0.17971912   
  95790000   297.72663      0              260.95625      524.53381     -0.76755542   
  95800000   315.63652      0              272.41336      551.84656      0.25308425   
  95810000   339.42669      0              268.23437      568.72902     -0.76296163   
  95820000   287.62704      0              270.08758      524.72397     -0.0029718841 
  95830000   293.6633       0              244.00506      503.98536      0.46305947   
  95840000   310.50864      0              259.3635       534.25698      0.32436848   
  95850000   299.82852      0              251.23039      516.66875     -1.0573215    
  95860000   298.33602      0              265.32794      529.44499      0.21284776   
  95870000   322.22869      0              265.65604      550.92529     -0.32476351   
  95880000   297.58183      0              250.52925      513.97862      0.72857097   
  95890000   298.06567      0              274.61478      538.49249      0.98950968   
  95900000   286.62209      0              268.81467      522.56137      1.626151     
  95910000   292.72042      0              285.84365      544.98921      0.047785032  
  95920000   298.72255      0              250.88297      515.34221     -0.42042796   
  95930000   294.09134      0              257.25058      517.60982      0.19331393   
  95940000   300.31308      0              268.37491      534.24226      0.071421934  
  95950000   288.84137      0              269.02878      524.74021      1.3354396    
  95960000   278.58849      0              282.59885      529.2334      -0.74879663   
  95970000   297.33815      0              265.01799      528.25163      0.64791529   
  95980000   317.94906      0              258.78792      540.26841     -0.9366625    
  95990000   303.44944      0              248.02353      516.6675      -1.6891048    
  96000000   324.41959      0              268.12466      555.33351     -0.57447427   
  96010000   317.49676      0              265.64913      546.72921      0.21475337   
  96020000   295.17313      0              249.85594      511.17289     -0.0097371198 
  96030000   287.77896      0              249.97101      504.74189     -0.68715751   
  96040000   309.22448      0              278.04036      551.79697      0.7667381    
  96050000   309.63398      0              277.76929      551.88843     -1.0152179    
  96060000   327.37077      0              266.09518      555.91671     -0.81951928   
  96070000   320.06363      0              249.97705      533.32957      0.55434873   
  96080000   269.71627      0              251.77153      490.55151      0.53090583   
  96090000   319.46062      0              250.37774      533.19641     -1.1980134    
  96100000   294.55653      0              293.03882      553.80989     -2.2567178    
  96110000   302.03483      0              251.29459      518.6862       0.45242973   
  96120000   297.2594       0              259.77743      522.94135      0.66455481   
  96130000   294.68304      0              259.27786      520.16093      1.3666266    
  96140000   282.84983      0              257.28389      507.69102      0.71241253   
  96150000   314.16388      0              265.1727       543.30216      1.2705965    
  96160000   296.90787      0              244.22819      507.0809      -2.4699847    
  96170000   285.51797      0              229.77815      482.54737      0.83905185   
  96180000   281.88503      0              255.1599       504.71288      1.7579003    
  96190000   285.15567      0              261.23469      513.68317      0.062413187  
  96200000   316.95374      0              264.28552      544.88485      0.39539125   
  96210000   307.6762       0              281.88261      554.26853     -0.7674119    
  96220000   305.28844      0              255.07789      525.34992     -0.015311759  
  96230000   286.9014       0              275.55732      529.5513      -0.89264766   
  96240000   282.63327      0              270.42749      520.64288     -0.77475294   
  96250000   278.71093      0              270.24324      516.9862       0.24569408   
  96260000   325.14174      0              252.72205      540.57022     -0.35269286   
  96270000   294.70397      0              273.93927      534.84087     -0.6048212    
  96280000   282.4559       0              273.67723      523.73561     -0.69247285   
  96290000   298.75184      0              262.55413      527.03931      0.3348364    
  96300000   290.79907      0              267.65675      525.10134     -1.4219074    
  96310000   331.09776      0              267.93924      561.06028      0.872414     
  96320000   286.68427      0              243.72475      497.52649     -1.0014316    
  96330000   288.2825       0              248.31625      503.53292      0.40159735   
  96340000   316.19593      0              274.36818      554.29662     -1.3564488    
  96350000   306.97198      0              277.185        548.94748     -0.1385637    
  96360000   337.04993      0              254.95966      553.35016     -0.75519572   
  96370000   312.68997      0              261.85657      538.68118      1.4550426    
  96380000   325.05784      0              240.96174      528.73563     -0.073816187  
  96390000   342.47174      0              265.31941      568.50984      1.0666939    
  96400000   296.46445      0              271.93996      534.40012      0.46515215   
  96410000   317.9405       0              268.0017       549.47461     -0.19387831   
  96420000   318.60702      0              252.77749      534.84047     -0.15215945   
  96430000   296.24147      0              250.93243      513.19518      0.55968421   
  96440000   298.84094      0              263.08423      527.6483       0.44553261   
  96450000   290.77867      0              276.44895      533.87548     -1.6077653    
  96460000   336.07783      0              254.82755      552.35745     -1.3776695    
  96470000   296.08823      0              261.88627      524.01335      0.15712655   
  96480000   261.62671      0              264.46161      496.07989      0.60335385   
  96490000   275.76791      0              266.72268      510.86017     -0.021428613  
  96500000   307.05274      0              259.32875      531.16272      2.3664222    
  96510000   298.85522      0              268.8194       533.3961      -0.96734279   
  96520000   283.6519       0              287.37544      538.49264     -1.0810955    
  96530000   316.17322      0              251.66724      531.57558      1.3928559    
  96540000   287.62889      0              251.55195      506.18998      0.75525242   
  96550000   312.60729      0              281.43107      558.18248      0.739174     
  96560000   282.72668      0              278.16665      528.46474     -0.43757135   
  96570000   285.38496      0              263.99167      516.64314      0.1290004    
  96580000   319.44989      0              229.63438      512.44355     -1.0921973    
  96590000   278.60758      0              251.35366      498.00512      0.54346261   
  96600000   283.25777      0              231.29165      482.05992      0.62854554   
  96610000   274.83634      0              277.14393      520.4567      -1.5347377    
  96620000   328.00746      0              255.80979      546.19499     -0.18256049   
  96630000   304.97488      0              267.69628      537.69073      0.2740818    
  96640000   312.8863       0              253.68318      530.6816      -0.49647512   
  96650000   316.02521      0              277.91941      557.69671     -0.88901179   
  96660000   297.70985      0              259.75738      523.32008      0.75622064   
  96670000   313.86928      0              256.29242      534.16108      0.39522464   
  96680000   295.1355       0              282.44745      543.73108      1.1451731    
  96690000   313.76058      0              258.42616      536.19859      0.031459607  
  96700000   307.15171      0              265.87999      537.80157      1.2449581    
  96710000   300.52362      0              259.3881       525.44184      1.123088     
  96720000   316.88331      0              293.83415      574.37113      1.8224349    
  96730000   296.74806      0              265.76331      528.47454     -1.8272754    
  96740000   295.6591       0              248.20169      509.94887      0.79309712   
  96750000   296.45171      0              253.35906      515.80793     -0.8958115    
  96760000   315.33838      0              269.71018      548.87943      0.60504925   
  96770000   303.53047      0              264.85703      533.57274     -0.44838056   
  96780000   289.80141      0              264.76052      521.32188     -1.2838502    
  96790000   314.05754      0              249.26697      527.3023       1.7612988    
  96800000   298.55564      0              275.20366      539.51515     -1.0486913    
  96810000   295.90371      0              256.405        518.36873     -0.61971784   
  96820000   297.44232      0              270.97262      534.29848      0.17098797   
  96830000   293.86585      0              256.80113      516.96074     -0.55156129   
  96840000   294.91425      0              271.19278      532.28054     -1.9875682    
  96850000   308.1003       0              273.46624      546.22762     -0.750228     
  96860000   290.44534      0              255.72874      512.86017     -0.72473665   
  96870000   312.33635      0              272.2593       548.77085      1.8052685    
  96880000   313.39017      0              244.14288      521.58738      0.1843856    
  96890000   305.26525      0              259.26869      529.52019     -2.0261809    
  96900000   292.42778      0              275.84844      534.73492     -0.63621764   
  96910000   288.47271      0              283.46996      538.85502     -0.67790808   
  96920000   307.49806      0              245.61646      517.84468      0.39330365   
  96930000   298.49595      0              260.97459      525.23323      1.5854664    
  96940000   303.74242      0              265.80639      534.70974      0.22546696   
  96950000   280.32452      0              266.95519      515.12665      0.42449664   
  96960000   292.26573      0              239.65139      498.39441      1.6854501    
  96970000   304.7219       0              255.49375      525.26423     -1.8795869    
  96980000   307.27592      0              264.79243      536.82398      0.87623643   
  96990000   300.32206      0              261.77725      527.65255      0.037150377  
  97000000   273.38331      0              271.44731      513.47372      2.4854161    
  97010000   311.73947      0              272.54591      548.52904     -0.16829692   
  97020000   326.01469      0              263.28102      551.90201      0.15023007   
  97030000   287.88194      0              266.87983      521.74188     -0.23218723   
  97040000   327.1351       0              252.06114      541.67403      1.2996799    
  97050000   294.47108      0              252.82476      513.52018      0.019043354  
  97060000   307.82426      0              251.38558      523.90258      0.043484011  
  97070000   295.36195      0              279.74707      541.23118      1.1525396    
  97080000   281.32761      0              254.28848      503.34797      0.036243942  
  97090000   327.63182      0              266.9011       556.95374     -1.5814432    
  97100000   270.24488      0              258.72498      497.97293      0.35805734   
  97110000   294.06971      0              252.44371      512.78379      2.2004732    
  97120000   296.14533      0              266.12575      528.30338     -0.53196843   
  97130000   301.15796      0              270.65946      537.27478      0.58214186   
  97140000   281.98089      0              265.74196      515.37981     -0.49226923   
  97150000   295.76883      0              266.60417      528.44849      0.33809065   
  97160000   301.21277      0              269.9218       536.58565      0.72693056   
  97170000   310.3982       0              230.26587      505.06157      0.40822076   
  97180000   310.8103       0              260.90661      536.06715      1.8507469    
  97190000   311.02229      0              245.7521       521.10032      0.24676848   
  97200000   279.25042      0              248.44119      495.66175     -0.54145652   
  97210000   301.33799      0              271.59257      538.36727      0.64774816   
  97220000   266.23374      0              253.15037      488.84726      1.6531215    
  97230000   324.28165      0              272.08351      559.17024      1.1218924    
  97240000   291.52895      0              270.7811       528.87185     -0.72573396   
  97250000   294.25107      0              269.86691      530.36755     -0.15299296   
  97260000   289.36866      0              267.6959       523.87415      0.405868     
  97270000   307.01166      0              263.12302      534.92062     -0.60661361   
  97280000   303.53824      0              256.00991      524.73249     -0.63663176   
  97290000   302.46196      0              273.27997      541.04972      0.40665317   
  97300000   284.03113      0              249.27683      500.72976     -0.63201372   
  97310000   319.50555      0              265.84568      548.70414      0.12338164   
  97320000   301.34258      0              256.00286      522.78162     -0.040428371  
  97330000   308.87037      0              265.67228      539.1154      -1.0414579    
  97340000   302.61877      0              261.02834      528.93691      0.57246524   
  97350000   310.02743      0              271.86439      546.33185      0.096651417  
  97360000   296.93584      0              272.46101      535.33848      0.57876267   
  97370000   303.83172      0              269.03929      538.02169      0.68804069   
  97380000   310.31503      0              261.36666      536.08874      0.4551577    
  97390000   299.92812      0              263.568        529.09454      0.70798496   
  97400000   305.31992      0              276.99508      547.29498      1.7425063    
  97410000   305.79465      0              240.51067      511.23086      0.70784383   
  97420000   299.26383      0              260.80301      525.74146      0.87700541   
  97430000   325.24222      0              256.03843      543.97556     -0.12043304   
  97440000   292.81004      0              240.71213      499.93703     -1.8437338    
  97450000   293.57919      0              255.99218      515.89801      0.035136739  
  97460000   306.10051      0              266.63182      537.62278      0.22032851   
  97470000   284.22797      0              277.95302      529.58021     -2.0421165    
  97480000   321.25425      0              254.82909      539.23567     -1.4504404    
  97490000   310.89177      0              261.68567      536.91834     -0.050201435  
  97500000   297.08035      0              262.41037      525.41578      0.40196448   
  97510000   318.70736      0              257.74818      539.89999      1.9876427    
  97520000   309.83172      0              256.18355      530.47776     -0.71552999   
  97530000   317.56087      0              247.32912      528.46595     -1.6696264    
  97540000   292.51167      0              255.19699      514.15774      0.45820575   
  97550000   288.34447      0              244.01776      499.28929     -1.3068781    
  97560000   309.08828      0              289.37696      563.013        1.2241623    
  97570000   276.27447      0              242.29241      486.87836     -0.52825459   
  97580000   295.71177      0              286.31148      548.10528      0.38341369   
  97590000   294.15634      0              265.9606       526.37738     -0.90155845   
  97600000   298.80576      0              240.1961       504.72901     -0.18724764   
  97610000   331.7182       0              278.16549      571.83581     -0.83713804   
  97620000   323.09408      0              261.53257      547.56796     -0.45235582   
  97630000   283.82432      0              262.02071      513.29055      0.66497937   
  97640000   335.77871      0              263.12436      560.38945      1.002713     
  97650000   298.15138      0              285.93428      549.88787     -0.95777614   
  97660000   304.19311      0              256.95334      526.25568     -0.74326909   
  97670000   298.19621      0              254.61         518.60329      1.1757033    
  97680000   277.64097      0              279.56177      525.35748      1.4177351    
  97690000   307.00059      0              279.42217      551.20997      0.035505304  
  97700000   296.97127      0              262.49764      525.40648     -0.39259333   
  97710000   282.61789      0              259.3945       509.59629     -0.5025298    
  97720000   280.67795      0              254.3081       502.79246     -0.29101371   
  97730000   304.57122      0              271.17946      540.81654     -0.3020211    
  97740000   287.55156      0              245.97199      500.54156      0.13606644   
  97750000   320.79783      0              265.51285      549.51536      0.36511135   
  97760000   300.45482      0              297.42884      563.42167     -1.8213815    
  97770000   305.13949      0              266.51048      536.65065      2.3971067    
  97780000   298.24851      0              268.07179      532.11137     -1.6506112    
  97790000   306.71318      0              257.65231      529.18567      1.2980666    
  97800000   291.87059      0              258.37709      516.77029     -1.3664883    
  97810000   299.21772      0              263.94769      528.84531     -0.35187205   
  97820000   287.08166      0              272.7154       526.86897     -1.5331776    
  97830000   299.3411       0              265.75548      530.76234      0.68750371   
  97840000   300.16442      0              257.29483      523.03057     -1.2920442    
  97850000   304.70431      0              266.40079      536.15569      2.0241583    
  97860000   302.14948      0              266.67446      534.16757     -0.69179921   
  97870000   329.92701      0              264.07335      556.15793      0.35683363   
  97880000   299.84744      0              263.84864      529.30375     -1.0305136    
  97890000   273.53034      0              269.48705      511.64363      0.85589676   
  97900000   299.43373      0              254.0168       519.10565      0.050368009  
  97910000   320.96713      0              253.48404      537.63643     -1.8294631    
  97920000   309.10243      0              283.73758      557.38614      0.52085468   
  97930000   306.01361      0              258.93322      529.84725      0.37503123   
  97940000   310.39124      0              278.82478      553.61433     -1.2538519    
  97950000   290.18882      0              250.0364       506.94073      0.029839045  
  97960000   328.43033      0              270.15112      560.91068      0.53305676   
  97970000   308.3116       0              265.50855      538.45698     -0.59677189   
  97980000   282.69735      0              258.65126      508.92339      1.3383469    
  97990000   286.65049      0              246.75109      500.52294     -1.0901692    
  98000000   292.9877       0              281.1521       540.53429      0.14966267   
  98010000   297.7427       0              286.06189      549.65367     -0.44092557   
  98020000   306.19278      0              273.33256      544.40521     -0.61398606   
  98030000   282.66376      0              265.86428      516.10667      1.1319498    
  98040000   291.33923      0              258.79691      516.71969      0.37046247   
  98050000   315.51125      0              275.3506       554.6729       0.086240361  
  98060000   312.02391      0              270.70006      546.93502      1.3817833    
  98070000   317.748        0              260.59047      541.89296      0.93205935   
  98080000   312.95897      0              245.93358      522.99634     -0.74727208   
  98090000   286.8949       0              255.53909      509.52731      1.8506848    
  98100000   285.89899      0              264.36601      517.47256     -1.2386034    
  98110000   304.04614      0              281.48751      550.65973     -0.79505233   
  98120000   298.51949      0              240.89347      505.17295     -0.65554949   
  98130000   291.82601      0              291.43806      549.7918       0.7550553    
  98140000   288.2626       0              275.01974      530.21878     -0.15753108   
  98150000   272.99213      0              269.95998      511.64007     -1.3405024    
  98160000   299.64362      0              258.60486      523.87954     -1.0297325    
  98170000   293.56145      0              259.86497      519.7551      -0.87535387   
  98180000   307.05132      0              248.43138      520.2641      -0.23132208   
  98190000   286.8726       0              269.0582       523.02668      0.68504084   
  98200000   297.00608      0              248.84792      511.78757     -0.080013052  
  98210000   314.34009      0              242.44782      520.73328     -1.1284818    
  98220000   299.4071       0              240.08255      505.14783     -0.5387063    
  98230000   309.22966      0              265.37059      539.13179      0.61145709   
  98240000   299.06878      0              270.4932       535.25896     -1.270897     
  98250000   292.09479      0              248.88397      507.47566     -0.015124315  
  98260000   290.69427      0              266.25276      523.60457     -0.63600354   
  98270000   274.75752      0              246.99579      490.23879      0.98722709   
  98280000   305.48843      0              264.67362      535.1227      -0.62494516   
  98290000   299.44172      0              285.78272      550.87866     -0.26232403   
  98300000   345.39483      0              271.52615      577.3044       0.022999639  
  98310000   297.68078      0              281.69627      545.23323      0.27551605   
  98320000   321.74968      0              255.09168      539.93686      1.5599742    
  98330000   300.04785      0              242.19356      507.8261      -0.33039322   
  98340000   326.74776      0              271.2352       560.50518     -0.21786657   
  98350000   291.34175      0              248.11561      506.04063     -0.62661323   
  98360000   295.80657      0              253.81217      515.68989     -0.37925045   
  98370000   306.61331      0              260.46327      531.90822      1.8644692    
  98380000   320.87256      0              286.30747      570.37614     -1.7473999    
  98390000   297.42918      0              270.78659      534.10082      0.82981832   
  98400000   297.48826      0              298.40889      561.77542      0.69321528   
  98410000   309.4546       0              273.52466      547.485       -0.63882591   
  98420000   273.34828      0              259.97079      501.96619     -0.55102389   
  98430000   309.96427      0              250.12888      524.54043     -0.70222778   
  98440000   315.0953       0              253.55344      532.50749     -0.76057871   
  98450000   289.43155      0              262.42265      518.65657      0.75484525   
  98460000   282.77727      0              263.8193       514.16219     -1.262581     
  98470000   278.11058      0              278.54308      524.75454     -0.24270018   
  98480000   302.498        0              252.12954      519.93119     -0.17953673   
  98490000   308.80719      0              257.4314       530.81858      1.2838445    
  98500000   295.98375      0              270.82193      532.85652      1.0394791    
  98510000   284.74174      0              242.79966      494.88169     -0.10414466   
  98520000   297.80069      0              262.32244      525.96556      0.15607625   
  98530000   304.12408      0              275.02336      544.26459      0.70021981   
  98540000   308.14691      0              245.18927      517.99191     -1.0451789    
  98550000   304.78065      0              257.94516      527.76765      0.030552864  
  98560000   310.02413      0              262.1638       536.62834     -0.96407002   
  98570000   286.63393      0              275.0694       528.82658      0.060345899  
  98580000   309.54881      0              271.86361      545.90735     -0.85233738   
  98590000   288.98048      0              266.69854      522.53313     -0.29020754   
  98600000   301.13516      0              271.56751      538.16264     -0.43952339   
  98610000   310.75035      0              278.84173      553.94919     -0.51572601   
  98620000   307.92129      0              248.44484      521.04774      1.2045443    
  98630000   320.62524      0              271.86526      555.71498      0.68776707   
  98640000   283.59882      0              255.46653      506.53673     -0.21783344   
  98650000   296.38822      0              263.8552       526.24786     -0.83447312   
  98660000   311.49351      0              281.59765      557.36303      1.3016382    
  98670000   292.63151      0              277.72142      536.78826      0.44026918   
  98680000   307.89527      0              283.70932      556.28918      0.19439937   
  98690000   287.113        0              256.20751      510.38882     -0.51478829   
  98700000   285.25609      0              270.82922      523.36661     -0.52807899   
  98710000   302.70679      0              276.82918      544.81568     -0.99317331   
  98720000   307.78881      0              247.80032      520.28594     -0.26211171   
  98730000   277.40931      0              253.78223      499.37286      0.65313175   
  98740000   314.3223       0              254.03585      532.30557      0.57826496   
  98750000   320.10609      0              252.01593      535.40604     -0.22799772   
  98760000   309.90056      0              256.25423      530.60937      0.93969976   
  98770000   295.27855      0              266.42283      527.83311      2.1262048    
  98780000   292.05111      0              251.66717      510.22019      0.09160551   
  98790000   313.39741      0              267.25179      544.70269      0.44097885   
  98800000   297.04194      0              266.15396      529.12536      1.0469728    
  98810000   311.97793      0              256.78107      532.97531     -0.1082434    
  98820000   298.25077      0              287.10101      551.1426       0.43651297   
  98830000   299.97908      0              263.14369      528.71535      0.15104719   
  98840000   302.83465      0              288.79584      556.89553      0.85788475   
  98850000   266.51281      0              248.98724      484.93118      0.60616515   
  98860000   294.64299      0              232.00086      492.84847      0.056352731  
  98870000   307.34188      0              266.15904      538.24898      0.44180587   
  98880000   292.93428      0              251.70041      511.03531     -0.078763184  
  98890000   325.6005       0              270.41556      558.66988      2.5534543    
  98900000   302.47621      0              289.09847      556.88083     -0.87688688   
  98910000   317.94442      0              265.29498      546.77136      0.70733681   
  98920000   293.99387      0              267.50662      527.77957      1.2292578    
  98930000   283.89967      0              258.80994      510.14649      1.9885151    
  98940000   289.40962      0              255.52932      511.74383     -1.2040719    
  98950000   297.73197      0              293.52126      557.10355      0.40763886   
  98960000   275.03592      0              252.46828      495.95775     -1.6919958    
  98970000   306.59424      0              251.835        523.26306     -1.3351948    
  98980000   266.9156       0              252.8679       489.16844      0.22111741   
  98990000   271.96212      0              267.16952      507.93775     -0.78482531   
  99000000   331.2794       0              253.51877      546.80062      0.30607975   
  99010000   308.92477      0              289.83745      563.32873     -0.68282283   
  99020000   297.99232      0              245.09075      508.90352     -0.41561926   
  99030000   301.95289      0              275.65861      542.97769     -1.7888588    
  99040000   301.32724      0              262.81683      529.58202     -1.0907801    
  99050000   290.17432      0              277.10009      533.99158      0.60124391   
  99060000   277.44565      0              267.30989      512.93269     -1.9820298    
  99070000   313.67508      0              283.02598      560.72271      0.078852256  
  99080000   295.69522      0              254.96511      516.74426      1.6048       
  99090000   297.00837      0              253.75094      516.69262      0.51158732   
  99100000   302.56961      0              286.82628      554.69133      0.80569986   
  99110000   317.71917      0              246.47413      527.75111      1.2510807    
  99120000   303.09378      0              284.71742      553.04652      0.75239886   
  99130000   298.47628      0              255.7854       520.02663      1.2207113    
  99140000   302.00144      0              279.06908      546.43113     -0.12130587   
  99150000   286.21655      0              271.45962      524.8473       1.411063     
  99160000   272.75092      0              269.92163      511.38818     -0.11226609   
  99170000   307.6984       0              267.22405      539.62962     -0.42952426   
  99180000   297.77186      0              265.83795      529.45556      0.81653461   
  99190000   309.08692      0              272.75595      546.39078      1.9024124    
  99200000   315.54476      0              241.97391      521.32586      0.98008762   
  99210000   286.54186      0              228.86436      482.54004      0.86816825   
  99220000   311.0869       0              266.63024      542.03565      0.33714757   
  99230000   305.80496      0              262.25152      532.98083     -1.4712384    
  99240000   297.07847      0              267.35127      530.35502      0.024501402  
  99250000   294.30417      0              231.63177      492.17942      0.61905713   
  99260000   282.4847       0              276.0588       526.14267      0.24912701   
  99270000   294.5694       0              250.61947      511.40194     -0.0081910052 
  99280000   292.27061      0              256.57414      515.32148      1.1788275    
  99290000   290.83013      0              253.03844      510.51053      0.381308     
  99300000   300.24851      0              272.26981      538.07999     -1.4242903    
  99310000   282.41602      0              265.83574      515.8588       0.63276763   
  99320000   300.82276      0              268.53025      534.84882      0.14257521   
  99330000   291.28378      0              262.77855      520.65225      0.011422134  
  99340000   285.50418      0              270.22905      522.98607     -0.19698931   
  99350000   287.98453      0              268.31547      523.26834     -0.39571742   
  99360000   314.2508       0              248.3827       526.58912     -0.034177321  
  99370000   316.92906      0              249.58725      530.16474      1.6610313    
  99380000   311.03155      0              264.20647      539.56288      0.2958972    
  99390000   298.75344      0              289.17955      553.66615     -1.1509999    
  99400000   311.24569      0              254.70845      530.25444     -0.80888961   
  99410000   311.23107      0              267.46562      542.99867     -0.06025704   
  99420000   319.51424      0              249.10095      531.96709      0.67005785   
  99430000   303.40712      0              266.089        534.69551      0.091897163  
  99440000   320.24256      0              249.74724      533.25816     -0.56663469   
  99450000   297.37923      0              250.22346      513.49347     -1.5819066    
  99460000   299.45223      0              285.36384      550.46908      0.0064303187 
  99470000   293.05687      0              268.14471      527.58813     -1.5143912    
  99480000   302.13684      0              253.13981      520.62173     -0.35527091   
  99490000   291.93309      0              277.00889      535.45742      0.31655363   
  99500000   302.97212      0              262.4525       530.6739       1.1118479    
  99510000   307.16455      0              260.43941      532.37237      1.2228021    
  99520000   307.05522      0              273.3428       545.17897      2.4305049    
  99530000   285.47527      0              278.9082       531.63962     -0.81970939   
  99540000   286.302        0              275.18481      528.64814      0.13513407   
  99550000   278.88053      0              277.02786      523.92095      2.3031292    
  99560000   332.76964      0              257.09503      551.69619      0.22546979   
  99570000   294.05089      0              271.09227      531.41569     -0.99021314   
  99580000   296.53372      0              234.23393      496.7554       0.7198072    
  99590000   311.53682      0              269.77711      545.58084      0.95915132   
  99600000   297.9017       0              257.32514      521.05769      0.32396002   
  99610000   305.99137      0              273.67425      544.56858      0.45178126   
  99620000   304.61069      0              276.37111      546.04313      0.077430172  
  99630000   302.32195      0              260.37214      528.01794     -0.7283103    
  99640000   305.8239       0              284.53327      555.27935      0.12450418   
  99650000   308.36371      0              251.47056      524.46513      0.58359318   
  99660000   316.24014      0              249.94992      529.9175      -1.0535523    
  99670000   301.55333      0              265.27186      532.2372      -0.28478566   
  99680000   301.39186      0              266.3635       533.18589      0.28017434   
  99690000   318.13063      0              267.60617      549.2474      -1.8431415    
  99700000   281.91302      0              279.06667      528.64443      0.80414085   
  99710000   281.52471      0              273.45664      522.69063      0.95070016   
  99720000   280.24525      0              252.22011      500.32139     -0.083962318  
  99730000   321.44228      0              253.86924      538.44228      0.43686418   
  99740000   319.75998      0              244.64931      527.733       -0.43678298   
  99750000   296.3094       0              278.37354      540.69642     -0.74920397   
  99760000   325.0895       0              260.07036      547.87229     -0.41419586   
  99770000   313.86156      0              256.23383      534.09565     -0.85999824   
  99780000   299.20402      0              248.83527      513.72076     -0.89619856   
  99790000   308.85654      0              254.02961      527.46049      1.727136     
  99800000   289.02167      0              268.32107      524.19213     -0.026621477  
  99810000   296.82536      0              276.33897      539.11864      0.29685777   
  99820000   298.33089      0              288.85905      552.97156     -1.5967741    
  99830000   289.6496       0              241.49527      497.92223      0.17223906   
  99840000   276.92429      0              263.46096      508.62219      1.313079     
  99850000   300.71988      0              274.67304      540.90052     -0.41533945   
  99860000   295.0496       0              269.99371      531.2013      -0.47471253   
  99870000   298.20301      0              238.36055      502.35984     -0.21416997   
  99880000   284.86512      0              284.66731      536.85856      1.793663     
  99890000   280.84         0              259.3708       507.99862     -1.7429451    
  99900000   281.05757      0              247.95734      496.77777      0.17461263   
  99910000   295.1051       0              267.31775      528.57448      2.1051089    
  99920000   286.7342       0              267.11434      520.9603      -0.66625381   
  99930000   294.66922      0              273.98119      534.85202     -1.7820019    
  99940000   295.07536      0              259.22779      520.45818      0.090413068  
  99950000   296.39914      0              261.723        524.12533     -0.36945694   
  99960000   299.44208      0              276.58855      541.68481     -0.14751767   
  99970000   330.20213      0              245.59057      537.9187      -0.1100559    
  99980000   281.26079      0              279.14583      528.14617     -0.26936441   
  99990000   302.74968      0              262.71312      530.73759     -0.19765361   
 100000000   306.0732       0              271.19155      542.15833      0.58882396   
Loop time of 1315.56 on 1 procs for 100000000 steps with 298 atoms

Performance: 6567.545 ns/day, 0.004 hours/ns, 76013.253 timesteps/s, 22.652 Matom-step/s
100.0% CPU use with 1 MPI tasks x 1 OpenMP threads

MPI task timing breakdown:
Section |  min time  |  avg time  |  max time  |%varavg| %total
---------------------------------------------------------------
Pair    | 0          | 0          | 0          |   0.0 |  0.00
Bond    | 473.68     | 473.68     | 473.68     |   0.0 | 36.01
Neigh   | 2.66       | 2.66       | 2.66       |   0.0 |  0.20
Comm    | 4.9976     | 4.9976     | 4.9976     |   0.0 |  0.38
Output  | 0.33232    | 0.33232    | 0.33232    |   0.0 |  0.03
Modify  | 796.14     | 796.14     | 796.14     |   0.0 | 60.52
Other   |            | 37.75      |            |       |  2.87

Nlocal:            298 ave         298 max         298 min
Histogram: 1 0 0 0 0 0 0 0 0 0
Nghost:              0 ave           0 max           0 min
Histogram: 1 0 0 0 0 0 0 0 0 0
Neighs:              0 ave           0 max           0 min
Histogram: 1 0 0 0 0 0 0 0 0 0

Total # of neighbors = 0
Ave neighs/atom = 0
Ave special neighs/atom = 59.751678
Neighbor list builds = 394880
Dangerous builds = 0
Total wall time: 0:21:55
